%%MatrixMarket matrix coordinate real general
%
12956 38 22184                                                    
1 9 8
1 10 17
1 11 11
2 5 1
3 1 1
3 28 5
4 29 1
5 34 1
6 29 11
7 3 1
7 22 1
8 5 1
9 5 1
9 7 4
9 8 5
9 30 1
9 38 4
10 8 1
10 24 3
11 28 3
12 26 1
13 29 7
14 2 18
14 3 41
14 34 48
15 21 26
15 22 20
16 38 1
17 12 1
18 8 1
19 15 11
19 16 9
19 17 8
20 24 26
21 3 1
21 18 1
22 12 1
23 21 1
24 5 1
24 18 7
24 19 3
24 20 3
24 21 1
25 5 1
25 18 35
25 19 37
25 20 12
25 24 1
26 15 12
26 16 14
26 17 13
26 18 8
26 19 8
26 20 3
27 24 11
27 29 16
27 30 1
27 34 2
28 1 1
28 2 7
28 3 4
28 28 4
28 34 10
29 18 4
29 19 2
29 20 1
29 38 1
30 21 2
30 22 1
31 33 1
32 22 1
33 3 1
34 24 1
35 22 1
36 24 5
37 2 1
38 12 1
38 14 1
39 12 4
39 14 5
40 31 2
41 38 1
42 21 14
42 22 8
43 19 1
44 38 1
45 2 5
45 3 5
45 34 15
46 3 1
46 23 1
46 24 18
46 38 1
47 8 1
48 3 1
49 2 2
49 3 2
49 5 1
49 24 2
49 29 1
49 34 4
49 38 1
50 10 2
50 11 3
51 31 7
52 24 1
53 24 11
54 18 26
54 19 37
54 20 14
55 18 10
55 19 12
55 20 2
56 22 1
57 14 1
57 38 2
58 10 1
59 29 1
60 3 1
60 20 1
60 24 1
61 5 1
62 24 31
63 38 1
64 7 8
64 8 10
65 10 1
66 29 7
66 30 1
67 1 1
67 2 4
67 3 15
67 34 26
68 3 1
69 3 2
69 26 4
69 34 4
70 29 1
71 34 1
72 5 1
73 23 1
73 24 2
74 31 3
75 7 2
75 8 2
75 38 2
76 29 9
76 30 2
77 24 3
78 9 2
78 10 4
78 11 2
79 18 22
79 19 26
79 20 14
80 24 2
81 12 3
81 14 1
82 15 4
82 16 3
82 17 3
82 21 3
82 22 2
82 31 1
83 28 2
84 26 1
85 16 2
86 31 1
87 34 1
88 38 1
89 18 1
90 24 1
91 34 1
92 2 1
93 28 2
94 24 1
95 8 1
96 24 1
97 3 1
97 9 1
98 9 5
98 10 6
98 11 3
99 19 1
99 24 1
100 38 1
101 18 1
102 10 4
102 11 3
102 20 1
102 21 1
103 3 1
104 16 1
105 18 1
105 24 1
106 34 1
107 18 1
108 9 20
108 10 35
108 11 28
109 38 1
110 24 1
111 31 1
112 34 1
113 2 1
113 24 1
114 3 2
115 31 1
116 14 1
116 29 16
116 34 1
117 12 4
117 14 2
118 19 1
118 20 1
118 31 2
119 38 1
120 10 2
121 18 1
122 2 1
123 29 6
124 5 1
125 19 1
125 28 4
126 34 1
127 34 1
128 20 1
129 8 1
130 18 1
130 19 3
130 20 3
131 15 1
132 3 1
133 9 4
133 10 5
133 11 3
134 5 1
135 29 1
135 34 1
136 12 14
136 14 10
136 28 1
137 18 1
138 2 1
138 3 2
138 34 4
139 15 1
140 5 1
140 31 1
141 4 1
141 5 3
141 38 2
142 10 2
142 11 1
143 31 1
144 3 1
145 5 3
145 18 5
145 19 7
145 20 1
145 38 1
146 18 1
147 31 1
148 31 1
149 7 4
149 8 4
150 1 1
150 2 4
150 3 11
150 26 2
150 34 3
151 22 1
152 24 1
153 21 49
153 22 40
154 3 1
154 19 1
155 38 1
156 10 1
156 17 1
156 31 1
157 38 1
158 9 2
158 10 6
158 11 4
159 31 6
160 14 1
161 29 15
162 4 4
162 5 29
162 38 38
163 5 2
163 38 1
164 3 1
165 34 1
166 2 2
166 3 9
166 34 10
167 28 4
168 29 1
168 31 1
169 26 1
170 12 6
170 14 3
171 31 3
172 3 2
172 26 1
172 34 2
173 3 1
174 31 11
175 4 1
176 21 4
176 22 5
177 24 1
177 29 11
177 38 1
178 3 1
178 25 1
178 26 1
179 21 1
180 24 1
181 25 1
182 15 2
183 12 1
184 3 1
185 24 1
185 31 1
186 15 1
186 26 6
187 5 1
188 31 1
189 29 5
190 34 1
191 7 1
191 8 3
192 34 1
193 19 1
194 24 1
195 12 1
196 18 15
196 19 11
196 20 3
197 12 6
197 14 9
197 24 1
198 24 2
199 15 1
200 28 4
201 22 1
202 38 1
203 3 1
204 29 1
205 12 7
205 14 6
205 24 1
206 18 1
207 38 1
208 14 1
209 5 31
209 18 1
209 38 26
210 3 2
211 29 21
211 30 1
211 34 1
212 15 12
212 16 7
212 17 13
212 18 1
212 20 1
213 3 1
214 8 1
215 9 11
215 10 6
215 11 5
216 11 1
217 10 1
218 14 1
219 34 1
220 18 1
221 10 1
221 12 1
222 34 1
223 11 1
224 13 1
225 28 1
226 21 2
227 2 1
227 3 1
227 34 1
228 5 1
228 10 1
228 31 14
229 2 1
230 31 1
231 19 1
231 29 1
232 3 1
232 5 2
232 12 2
232 14 1
232 24 1
232 38 2
233 2 1
234 2 8
234 3 20
234 34 21
235 29 1
236 7 6
236 8 6
237 34 1
238 5 3
238 38 7
239 29 1
240 3 1
241 29 2
241 30 1
242 19 1
243 3 1
244 24 1
245 2 1
246 24 24
247 21 1
247 34 1
248 24 1
249 18 2
249 19 1
249 24 1
250 3 1
251 24 1
252 24 1
253 3 4
253 34 3
254 3 1
255 1 1
255 2 31
255 3 56
255 19 1
255 34 51
256 3 2
256 34 2
257 10 3
257 11 3
258 19 1
258 20 1
258 34 1
259 34 1
260 12 10
260 14 8
260 19 15
260 20 7
260 31 1
261 26 1
262 29 4
263 9 10
263 10 12
263 11 16
264 21 1
265 29 1
266 15 1
267 31 1
268 21 1
269 12 13
269 13 2
269 14 6
270 2 5
270 3 8
270 18 1
270 34 12
271 8 1
272 24 10
273 29 16
274 29 4
275 11 1
276 7 1
277 3 1
278 18 1
278 19 2
279 19 1
280 24 12
281 29 3
281 30 2
282 19 1
283 31 1
284 19 1
285 4 2
285 5 3
285 38 1
286 19 1
287 5 1
287 38 1
288 5 1
288 11 1
289 29 1
290 1 1
290 2 11
290 3 22
290 34 19
291 20 1
292 24 1
293 26 1
293 29 5
294 5 1
295 5 1
296 21 1
297 18 1
297 34 1
298 12 7
298 14 9
299 12 1
299 29 1
300 21 7
300 22 5
301 12 4
301 14 2
301 30 1
302 31 1
303 31 4
304 15 1
305 12 1
305 19 3
305 20 1
306 9 1
306 18 22
306 19 9
306 38 1
307 26 1
308 34 1
309 24 8
310 3 1
311 12 24
311 13 1
311 14 22
312 22 1
313 11 3
313 18 7
313 19 5
313 20 4
314 12 1
315 2 1
316 7 7
316 8 10
317 29 1
318 3 1
319 22 1
320 30 1
321 2 14
321 3 23
321 25 1
321 26 4
321 31 5
321 34 15
322 4 1
322 5 10
322 29 2
322 38 10
323 34 1
324 21 1
325 12 3
326 10 1
327 21 6
327 22 8
328 2 4
328 3 4
328 29 1
328 34 6
329 29 9
330 12 1
330 34 1
331 4 1
332 31 2
333 22 4
334 19 1
335 5 1
335 15 5
335 16 6
335 17 7
335 21 7
335 22 5
335 38 2
336 4 1
336 5 7
336 38 4
337 15 1
338 3 1
340 20 1
341 1 1
341 2 22
341 3 37
341 31 1
341 34 30
342 15 1
343 5 1
343 24 16
343 26 1
344 34 1
344 38 1
345 2 1
346 34 1
347 1 1
347 2 6
347 3 25
347 34 17
348 2 1
349 2 1
350 19 1
351 3 1
351 18 50
351 19 50
351 20 24
352 23 1
352 24 11
353 29 1
354 26 3
355 18 1
356 29 8
356 30 1
356 38 1
357 18 1
357 19 1
358 8 1
359 31 2
360 2 4
360 3 5
360 34 5
361 11 1
362 5 1
363 2 1
364 34 1
365 8 1
365 34 1
366 38 1
367 19 1
368 21 2
369 29 11
370 24 1
371 21 1
372 24 1
372 26 2
372 29 9
373 29 1
374 2 1
375 31 1
376 14 1
377 21 1
377 22 1
378 31 1
379 29 1
380 19 1
381 9 41
381 10 53
381 11 23
381 30 1
382 18 1
383 34 1
384 20 1
385 26 1
385 29 2
385 31 25
386 34 1
387 31 5
388 34 1
389 3 1
390 12 1
391 29 10
391 30 1
392 2 8
392 3 16
392 26 3
392 34 17
393 4 16
393 5 23
393 24 1
393 38 42
394 29 4
395 5 1
396 28 1
397 4 1
397 5 1
397 38 2
398 9 1
398 21 1
399 5 6
399 38 2
400 18 2
400 19 14
400 20 3
401 4 5
401 5 29
401 38 36
402 38 3
403 12 1
404 34 1
405 29 8
405 30 1
406 19 1
407 20 1
408 5 1
409 3 1
410 22 1
411 24 1
411 30 1
412 3 1
413 24 1
414 24 1
414 29 5
415 2 2
415 3 3
415 34 1
416 2 1
417 7 1
417 8 3
418 3 1
419 8 1
420 24 7
420 29 1
421 2 8
421 3 39
421 34 52
422 12 1
423 26 1
423 29 6
423 30 1
424 24 10
425 5 5
425 38 1
426 26 2
427 24 1
428 7 12
428 8 9
428 10 1
429 4 1
429 11 1
430 12 1
431 21 14
431 22 10
432 1 1
433 20 1
434 4 1
434 5 13
434 21 1
434 38 11
435 24 8
436 38 1
437 24 7
437 31 3
438 4 1
438 5 6
438 38 6
439 29 1
440 14 1
441 18 1
442 24 2
442 34 1
443 8 1
444 29 1
445 34 1
446 25 1
446 26 5
447 7 10
447 8 31
448 4 8
448 5 15
448 12 8
448 13 1
448 14 4
448 38 39
449 29 1
450 4 4
450 5 16
450 7 5
450 8 3
450 38 22
451 31 6
452 7 1
452 8 2
453 5 1
453 38 1
454 16 1
455 8 1
456 5 1
457 38 1
458 3 1
459 19 1
459 34 1
460 18 41
460 19 38
460 20 11
460 34 1
461 4 2
461 5 13
461 38 7
462 24 2
463 5 1
464 5 1
465 21 12
465 22 2
466 38 1
467 1 1
467 2 7
467 3 12
467 26 5
467 31 4
467 34 9
468 4 4
468 5 21
468 29 1
468 38 28
469 38 1
470 34 1
471 15 32
471 16 13
471 17 21
471 31 1
471 38 1
472 10 1
472 24 1
473 34 1
474 20 1
475 7 2
475 8 6
476 3 1
477 9 1
477 10 1
478 19 1
479 34 1
480 19 1
481 29 3
482 19 1
483 4 2
483 5 15
483 26 1
483 38 32
484 34 1
485 28 1
486 2 15
486 3 28
486 25 1
486 26 13
486 31 9
486 34 28
487 2 10
487 3 13
487 34 16
488 16 1
489 29 16
489 30 1
490 38 1
491 17 1
492 14 1
493 15 1
493 28 2
493 38 1
494 7 1
495 29 1
496 18 28
496 19 31
496 20 14
497 24 1
498 3 1
499 3 1
500 5 1
501 12 1
502 5 1
503 2 14
503 3 17
503 34 22
504 28 1
504 29 1
505 28 2
506 34 1
507 34 1
508 38 2
509 11 1
510 19 1
511 9 3
511 10 40
511 11 28
512 4 3
512 5 17
512 20 1
512 34 1
512 38 17
513 9 2
513 10 5
513 11 3
513 24 1
514 30 1
515 31 1
516 34 1
517 3 1
517 19 1
517 38 1
518 1 1
518 2 7
518 3 6
518 34 12
519 2 1
519 29 9
520 15 1
520 16 1
520 17 2
520 24 2
521 4 2
521 5 18
521 38 18
522 29 1
523 26 1
524 31 1
525 12 1
526 18 1
526 19 1
526 20 1
527 4 2
527 5 25
527 38 25
528 24 9
528 38 1
529 10 1
530 5 1
530 19 1
531 12 5
531 14 5
532 24 1
533 11 1
534 24 1
535 34 1
536 24 1
537 24 11
538 24 15
539 5 1
539 24 26
540 18 1
540 20 1
540 34 1
541 21 1
542 14 1
542 28 1
543 3 1
543 31 9
544 24 1
544 28 5
545 10 1
545 11 1
545 34 1
546 13 1
547 25 1
547 26 1
547 33 1
548 2 1
548 24 2
549 18 1
550 3 1
550 26 2
550 34 4
551 12 3
551 17 1
551 34 1
552 19 1
553 29 10
553 30 2
554 29 1
555 29 1
556 3 1
557 18 11
557 19 29
557 20 6
558 31 2
559 18 1
559 34 1
560 2 1
560 18 21
560 19 16
560 20 4
560 29 1
561 34 1
562 34 1
563 15 1
564 5 1
564 15 1
564 22 1
564 24 2
565 26 4
565 29 4
566 34 1
567 15 1
567 18 6
567 19 6
567 20 5
568 14 1
569 4 1
570 18 2
570 19 6
570 20 2
571 5 1
572 3 1
573 22 1
574 3 1
575 24 1
576 18 1
577 19 1
578 18 10
578 19 12
578 20 4
578 21 8
578 22 4
579 17 1
580 30 1
581 28 3
582 31 1
583 28 1
584 18 3
584 19 10
584 20 1
584 29 1
585 21 12
585 22 7
586 3 1
587 5 1
588 24 5
589 5 1
590 16 2
591 28 1
592 24 1
593 2 1
593 3 1
594 11 1
595 4 2
595 5 1
595 38 2
596 21 4
596 22 1
597 9 1
597 29 5
598 5 1
598 7 2
598 8 3
599 10 1
599 15 17
599 16 9
599 17 13
599 24 14
599 34 1
600 18 4
600 19 6
600 20 1
600 38 1
601 9 1
601 11 1
601 12 2
602 2 1
603 15 2
604 16 1
605 29 1
606 21 1
607 3 1
608 38 1
609 8 1
610 15 1
611 19 1
612 14 1
613 21 20
613 22 19
614 29 8
615 24 1
616 7 17
616 8 12
617 3 1
618 26 2
619 4 4
619 5 5
619 38 10
620 9 3
620 10 2
620 11 4
621 16 1
621 29 8
622 18 1
623 4 5
623 5 8
623 24 1
623 34 1
623 38 13
624 28 1
625 2 5
625 3 16
625 34 20
626 22 1
627 2 2
627 3 13
627 34 12
628 26 2
628 34 1
629 4 1
629 34 1
630 24 1
631 22 1
632 18 1
632 21 1
632 29 1
633 7 1
633 8 1
634 10 1
634 25 1
634 26 3
634 29 3
634 30 1
635 28 1
636 25 1
636 26 8
636 38 1
637 5 1
638 2 1
639 21 4
639 22 3
640 34 1
640 38 1
641 24 14
642 24 1
643 4 1
643 5 4
643 38 9
644 24 1
645 18 1
645 24 33
646 4 1
647 19 1
647 24 1
647 29 4
647 30 1
648 4 5
648 5 12
648 38 17
649 12 24
649 14 21
650 31 7
651 3 1
651 34 2
652 10 1
652 11 1
652 19 1
653 24 1
654 4 2
654 5 12
654 38 15
655 24 16
656 11 1
657 3 1
658 4 2
658 5 20
658 38 26
659 38 1
660 29 1
661 4 1
661 5 4
661 38 8
662 3 2
662 34 1
663 34 1
664 24 3
665 12 1
666 31 1
667 12 1
668 24 1
669 18 1
669 19 1
669 24 6
670 29 1
671 29 12
672 29 3
672 30 2
673 21 1
674 3 1
674 5 2
674 38 5
675 18 1
675 26 1
675 31 1
676 2 3
676 3 3
676 34 10
677 2 5
677 3 4
677 31 2
677 34 5
678 29 1
679 18 19
679 19 25
679 20 11
680 3 1
680 29 1
681 34 1
682 4 2
682 5 14
682 21 1
682 38 9
683 2 15
683 3 36
683 34 49
684 12 1
684 19 1
685 31 1
686 31 1
687 24 9
688 4 1
689 2 15
689 3 24
689 34 37
690 8 1
691 38 1
692 29 10
692 30 1
693 3 1
694 34 1
695 3 1
696 2 1
696 3 9
696 34 12
697 21 1
698 30 1
699 24 1
700 14 1
701 11 1
701 18 28
701 19 15
701 20 13
702 5 1
703 38 1
704 29 8
704 30 1
705 24 1
706 29 1
707 19 1
708 4 1
709 8 1
710 29 6
711 4 1
711 5 1
712 8 1
713 7 1
713 24 1
714 3 1
715 3 1
716 19 1
717 4 1
717 5 6
717 38 9
718 19 1
719 29 1
720 29 12
720 30 1
721 3 1
722 18 15
722 19 19
722 20 17
723 34 1
724 5 1
724 21 1
725 18 1
726 31 3
727 3 1
728 9 2
728 11 3
728 38 1
729 4 2
729 5 3
729 8 3
729 20 1
729 38 5
730 8 1
730 19 1
731 3 1
731 21 1
732 38 1
733 34 1
734 24 1
735 3 2
735 34 1
736 28 2
737 9 1
737 18 1
738 31 4
739 21 1
739 29 9
740 12 1
741 5 1
742 34 1
743 12 1
744 28 7
745 3 1
746 8 1
747 4 1
748 5 1
748 15 1
749 5 1
750 3 1
750 15 1
750 17 2
751 38 1
752 19 1
753 9 1
754 38 1
755 29 13
755 30 2
756 19 1
757 1 1
758 34 1
759 3 1
759 24 3
759 25 1
759 26 4
759 31 3
759 34 1
759 38 1
760 29 2
760 31 2
761 29 6
761 30 1
762 3 1
763 9 4
763 10 11
763 11 4
764 29 3
764 30 1
765 15 4
765 16 1
765 17 3
765 38 1
766 25 2
766 26 4
767 28 3
768 29 1
769 7 1
770 29 13
770 30 1
771 5 7
771 9 1
771 11 3
771 28 1
771 34 1
771 38 7
772 34 1
773 12 4
773 14 2
774 12 1
775 1 1
775 2 6
775 3 15
775 31 3
775 34 13
776 4 8
776 5 12
776 38 19
777 29 8
777 30 1
778 10 1
778 34 1
779 11 1
779 31 13
780 18 1
781 3 1
781 28 4
782 29 8
783 34 1
784 21 2
784 22 2
785 24 3
786 9 6
786 10 7
786 11 6
787 24 1
788 3 1
789 10 1
790 24 1
791 1 1
791 2 8
791 3 13
791 34 16
792 21 16
792 22 12
793 19 1
794 12 1
794 14 1
795 31 6
796 3 1
796 9 1
796 12 1
797 3 1
797 31 5
798 31 4
798 32 1
798 38 1
799 11 1
800 2 2
800 3 4
800 34 1
801 19 1
802 1 1
802 2 1
802 3 7
802 19 1
802 27 1
802 34 6
803 18 8
803 19 11
803 20 5
804 24 3
804 29 11
804 31 6
805 18 1
806 18 1
806 38 1
807 22 1
808 26 3
809 9 1
810 2 1
811 24 1
812 9 4
812 10 15
812 11 22
813 31 3
814 38 1
815 2 11
815 3 10
815 29 6
815 34 21
816 4 2
816 5 4
816 31 1
816 38 17
817 19 1
818 4 1
818 26 2
819 24 7
819 34 1
820 31 1
821 29 2
822 28 2
823 38 1
824 18 6
824 19 5
824 20 3
825 24 1
826 1 1
826 2 7
826 3 6
826 24 19
826 31 4
826 34 7
827 31 3
828 28 1
829 19 1
829 20 1
830 12 1
831 15 2
831 16 2
831 17 2
832 28 4
833 3 1
834 34 1
835 8 1
836 4 7
836 5 28
836 38 31
837 19 1
838 18 1
838 19 3
838 20 1
838 34 1
839 12 1
840 31 1
841 16 1
842 26 1
843 14 1
844 15 1
844 16 1
844 17 1
844 19 1
845 15 1
846 12 10
846 13 1
846 14 2
847 3 1
847 21 1
847 31 6
848 14 1
849 15 1
850 4 1
850 5 6
850 38 1
851 21 1
852 15 1
853 15 5
853 16 2
853 17 2
854 12 4
855 22 1
856 4 1
856 24 2
856 29 1
856 30 3
856 31 2
857 10 1
858 1 1
858 2 6
858 3 29
858 34 33
859 21 15
859 22 6
860 12 3
860 14 6
861 28 4
862 19 3
863 19 1
864 7 3
864 8 8
865 10 1
865 34 1
866 24 1
867 34 1
868 34 1
869 21 1
870 12 1
871 8 1
872 15 1
872 29 4
873 15 1
874 11 1
875 29 20
876 34 1
877 38 1
878 9 1
878 10 1
878 11 1
879 29 1
880 34 1
881 18 1
882 29 13
882 30 1
883 29 1
884 29 1
885 2 1
886 21 1
887 2 15
887 3 14
887 28 1
887 34 28
888 29 10
889 18 13
889 19 12
889 20 5
890 15 2
890 17 1
891 5 1
892 24 6
892 34 1
893 18 1
893 19 2
894 29 1
895 24 2
896 24 2
897 15 4
897 17 2
897 38 1
898 10 1
899 18 17
899 19 26
899 20 12
900 4 1
901 21 1
902 10 1
903 19 1
903 29 23
903 30 2
904 3 1
905 29 5
905 34 1
906 12 1
907 5 1
907 23 2
907 24 45
908 26 1
909 34 1
910 24 8
911 7 1
912 24 1
913 34 1
914 2 1
915 22 1
916 1 2
916 2 39
916 3 51
916 19 1
916 34 66
917 31 1
918 17 1
919 15 6
919 16 6
919 17 3
919 18 1
920 9 8
920 10 42
920 11 24
921 11 1
922 3 1
922 18 53
922 19 71
922 20 22
923 24 13
924 3 1
925 38 1
926 5 1
927 3 1
928 29 6
929 38 1
930 18 1
931 9 2
932 31 1
933 5 1
934 3 1
934 18 10
934 19 10
934 20 4
935 2 1
936 3 1
937 28 1
938 21 1
939 3 1
940 21 26
940 22 10
941 29 1
941 34 1
942 2 1
942 28 1
943 31 4
944 3 1
944 19 1
944 24 4
945 26 1
946 4 8
946 5 39
946 21 1
946 31 13
946 38 49
947 34 1
948 7 2
948 8 3
949 16 1
950 7 8
950 8 11
950 22 1
951 29 13
951 30 1
952 21 1
952 22 1
953 14 1
954 26 1
955 24 2
956 12 1
956 14 2
957 12 1
958 4 1
959 10 1
960 34 1
961 5 3
961 38 3
962 5 1
962 31 4
963 34 1
964 12 4
964 14 4
965 2 28
965 3 38
965 21 1
965 34 52
966 12 6
966 14 5
967 3 1
968 5 1
969 31 1
970 34 1
971 3 1
972 2 7
972 3 17
972 34 23
973 2 6
973 3 3
973 34 7
974 5 1
975 2 4
975 3 5
975 25 1
975 34 4
976 24 1
977 38 1
978 7 15
978 8 18
979 20 1
980 34 1
981 29 17
981 30 2
981 34 1
982 29 22
982 30 2
983 22 1
983 29 1
984 3 1
985 1 2
985 2 41
985 3 73
985 24 1
985 34 87
986 27 1
986 28 1
987 3 1
988 19 1
989 12 5
989 14 2
989 18 32
989 19 33
989 20 15
990 3 1
991 2 5
991 3 13
991 34 16
992 38 1
993 34 1
994 20 1
995 29 1
996 31 1
997 5 1
997 10 1
997 19 1
998 10 1
999 2 3
999 3 7
999 34 11
1000 17 1
1001 18 1
1002 15 1
1002 29 2
1003 10 1
1003 11 5
1003 21 1
1003 30 1
1003 34 1
1004 5 2
1005 12 8
1005 14 4
1006 19 1
1006 34 1
1007 15 23
1007 16 17
1007 17 18
1008 24 1
1009 1 1
1010 1 2
1010 2 14
1010 3 52
1010 34 43
1011 20 1
1011 21 1
1012 12 1
1013 18 2
1013 19 1
1013 20 1
1014 34 1
1015 2 9
1015 3 14
1015 34 8
1016 2 1
1016 5 1
1016 19 1
1016 22 1
1016 24 11
1017 19 1
1018 34 1
1019 34 1
1020 21 1
1021 21 1
1022 21 1
1023 12 1
1024 24 1
1025 3 1
1026 24 1
1027 29 32
1027 30 3
1027 38 1
1028 31 1
1029 19 1
1030 9 1
1030 16 1
1030 29 1
1031 18 29
1031 19 43
1031 20 13
1032 21 26
1032 22 15
1033 2 1
1034 16 1
1035 28 1
1036 12 11
1036 13 1
1036 14 9
1037 24 10
1038 5 1
1038 21 1
1038 25 1
1038 28 4
1038 31 3
1038 34 1
1039 26 1
1040 14 1
1040 24 3
1041 26 1
1042 17 1
1042 19 1
1043 29 28
1043 30 1
1044 29 1
1045 38 1
1046 24 1
1047 5 1
1047 18 6
1047 19 1
1047 20 2
1048 24 2
1048 31 10
1049 15 2
1049 16 1
1049 17 2
1049 24 1
1050 34 1
1051 5 1
1052 21 1
1052 22 2
1053 15 8
1053 16 7
1053 17 4
1053 18 1
1054 38 1
1055 2 2
1055 3 1
1055 24 2
1055 34 4
1056 29 4
1057 20 1
1058 7 5
1058 8 3
1059 29 1
1060 2 10
1060 3 24
1060 34 37
1061 34 1
1062 22 1
1063 3 1
1063 5 1
1063 20 1
1064 2 5
1064 3 2
1064 24 4
1064 29 2
1064 34 12
1065 12 16
1065 14 11
1066 28 3
1066 29 7
1067 2 1
1068 2 1
1069 5 1
1069 9 1
1069 18 1
1070 9 5
1070 10 4
1070 11 4
1070 21 1
1070 24 1
1071 5 1
1072 29 8
1073 2 3
1073 3 22
1073 34 24
1073 38 1
1074 23 1
1074 24 6
1075 2 7
1075 3 21
1075 29 18
1075 30 1
1075 34 28
1076 3 1
1076 12 1
1077 4 3
1077 5 15
1077 38 15
1078 12 24
1078 13 1
1078 14 19
1078 19 1
1079 7 1
1079 8 5
1080 5 1
1080 19 1
1080 20 1
1081 12 1
1082 38 2
1083 14 1
1084 25 2
1084 26 2
1085 38 1
1086 18 1
1087 21 11
1087 22 11
1088 14 1
1089 31 1
1090 24 1
1091 5 1
1092 8 1
1093 8 1
1094 15 1
1094 29 2
1095 21 1
1096 5 1
1097 34 1
1098 3 1
1099 3 1
1099 5 1
1099 24 1
1099 31 1
1099 38 1
1100 7 5
1100 8 7
1101 24 1
1101 34 1
1102 4 3
1102 5 4
1102 15 1
1102 38 4
1103 7 1
1103 8 2
1104 38 1
1105 24 1
1106 29 6
1106 30 1
1107 21 1
1108 38 1
1109 38 1
1110 4 19
1110 5 60
1110 30 1
1110 38 73
1111 21 1
1112 19 1
1113 21 1
1114 11 1
1115 5 1
1115 10 1
1116 38 1
1117 16 1
1118 3 1
1119 5 2
1119 15 3
1119 17 1
1120 8 1
1120 24 2
1121 34 1
1122 1 1
1122 3 1
1122 34 1
1123 20 1
1124 29 3
1124 30 1
1125 5 1
1126 2 1
1126 34 1
1127 28 2
1128 29 5
1129 9 2
1129 10 1
1130 2 1
1131 10 1
1131 24 1
1132 1 1
1133 31 1
1134 38 1
1135 28 6
1135 38 1
1136 29 13
1136 30 2
1137 14 1
1138 18 7
1138 19 7
1138 20 1
1139 2 8
1139 3 16
1139 24 2
1139 29 3
1139 34 7
1140 28 1
1141 31 1
1142 31 1
1143 24 13
1144 3 1
1144 24 2
1144 34 1
1144 38 1
1145 28 1
1146 11 1
1147 12 2
1147 14 1
1147 21 1
1148 19 1
1149 21 12
1149 22 15
1150 15 12
1150 16 7
1150 17 8
1151 21 1
1152 17 1
1152 19 1
1153 38 1
1154 20 1
1155 18 2
1155 19 2
1155 20 2
1156 12 18
1156 14 12
1157 24 7
1158 19 1
1158 24 15
1159 19 1
1160 22 1
1161 24 5
1162 24 8
1163 11 1
1164 21 1
1165 29 1
1166 11 1
1167 26 2
1168 9 2
1168 10 2
1168 11 1
1169 11 1
1170 16 1
1171 38 1
1172 7 1
1173 28 1
1174 18 11
1174 19 10
1174 20 4
1174 38 1
1175 19 3
1175 20 1
1176 34 1
1177 29 7
1177 30 1
1178 4 1
1178 5 2
1178 9 6
1178 10 3
1178 38 11
1179 29 1
1180 4 1
1181 1 1
1181 2 2
1181 3 2
1181 34 8
1182 11 1
1182 29 3
1183 5 1
1184 18 4
1184 19 14
1184 20 3
1185 4 1
1186 34 1
1187 4 6
1187 5 23
1187 38 18
1188 18 17
1188 19 24
1188 20 14
1189 21 11
1189 22 4
1190 24 10
1191 18 1
1192 4 1
1192 5 6
1192 31 1
1192 38 10
1193 15 8
1193 16 3
1193 17 2
1194 3 1
1194 29 1
1194 34 1
1195 9 1
1195 10 1
1195 18 1
1195 19 1
1196 3 1
1196 4 1
1196 5 5
1196 38 6
1197 19 3
1197 34 1
1198 12 1
1199 14 1
1200 11 1
1201 29 1
1202 22 1
1203 5 1
1203 10 1
1204 2 5
1204 3 18
1204 21 1
1204 34 14
1205 15 5
1205 16 2
1205 17 3
1206 18 1
1206 19 1
1207 38 1
1208 34 1
1209 24 1
1210 19 1
1211 5 1
1211 24 4
1211 34 1
1212 18 1
1213 29 2
1214 18 1
1214 31 5
1214 34 1
1215 18 5
1215 19 8
1215 20 1
1216 7 7
1216 8 6
1217 3 1
1217 5 1
1217 28 4
1218 20 1
1219 18 1
1220 34 1
1221 31 4
1222 18 6
1222 19 9
1222 20 2
1223 10 1
1224 24 15
1225 28 6
1226 2 4
1226 3 13
1226 34 16
1227 3 1
1228 34 1
1229 29 1
1230 24 5
1230 25 1
1231 31 4
1232 5 1
1232 15 7
1232 16 5
1232 17 5
1233 7 11
1233 8 16
1234 5 1
1235 34 1
1236 12 2
1236 14 2
1236 31 1
1237 3 1
1238 18 1
1239 26 1
1239 29 4
1240 9 1
1240 12 1
1240 26 5
1241 29 1
1241 31 1
1241 34 1
1242 24 7
1243 28 1
1244 4 8
1244 5 17
1244 38 14
1245 3 1
1246 24 4
1247 12 1
1247 14 1
1248 24 1
1249 31 5
1250 29 12
1251 5 1
1251 20 1
1252 3 1
1252 18 2
1252 19 1
1252 20 1
1252 31 1
1253 21 1
1253 28 2
1254 4 2
1254 5 29
1254 38 24
1255 7 1
1256 3 1
1257 4 1
1258 34 1
1259 29 27
1259 30 1
1260 15 1
1261 19 1
1262 5 1
1262 34 1
1263 29 1
1264 15 4
1264 16 2
1264 17 6
1265 9 1
1265 18 1
1265 26 10
1266 7 18
1266 8 18
1267 17 1
1267 30 1
1268 12 1
1269 18 1
1270 3 1
1270 18 2
1270 19 5
1270 20 1
1271 31 2
1271 33 1
1272 12 5
1272 14 1
1273 28 2
1274 24 1
1274 31 2
1275 18 1
1276 3 1
1277 21 1
1278 38 1
1279 3 1
1280 38 1
1281 18 2
1282 12 5
1282 13 2
1282 14 7
1283 29 20
1284 24 1
1285 28 1
1286 24 1
1287 4 2
1287 5 11
1287 9 1
1287 38 13
1288 38 1
1289 38 1
1290 19 1
1291 17 1
1292 21 9
1292 22 5
1293 34 1
1294 19 1
1294 20 1
1295 31 1
1296 34 1
1297 20 1
1297 24 5
1297 29 1
1297 31 1
1298 31 1
1299 9 16
1299 10 15
1299 11 6
1299 19 1
1299 26 1
1300 2 7
1300 3 10
1300 29 1
1300 31 1
1300 34 16
1301 38 1
1302 19 1
1303 18 1
1303 19 3
1303 20 1
1304 8 1
1305 7 4
1305 8 5
1306 3 1
1307 24 9
1308 10 1
1309 17 1
1310 1 1
1310 2 16
1310 3 30
1310 5 1
1310 26 1
1310 34 38
1311 3 1
1312 3 1
1313 21 6
1313 22 4
1314 22 1
1315 28 1
1316 15 1
1317 34 1
1318 18 1
1318 28 6
1319 3 1
1319 24 11
1319 31 1
1320 29 1
1321 3 1
1322 9 16
1322 10 24
1322 11 8
1323 29 1
1324 38 1
1325 29 1
1326 7 1
1327 2 4
1327 3 10
1327 34 9
1327 38 1
1328 29 1
1329 29 1
1330 12 4
1330 14 1
1331 8 1
1332 19 1
1333 3 1
1333 16 1
1334 2 1
1335 5 1
1336 14 1
1337 3 1
1338 18 5
1338 19 10
1339 18 1
1340 5 2
1340 29 5
1340 38 5
1341 5 1
1341 19 1
1341 24 1
1342 3 1
1343 18 63
1343 19 90
1343 20 36
1343 31 1
1344 21 7
1344 22 5
1345 34 1
1346 31 17
1347 14 1
1348 28 6
1349 3 1
1350 29 1
1351 5 1
1352 2 1
1353 2 4
1353 3 20
1353 11 1
1353 28 1
1353 29 3
1353 34 15
1354 34 1
1355 7 1
1356 28 1
1357 24 1
1358 19 1
1359 4 2
1359 5 9
1359 7 8
1359 8 6
1359 34 1
1359 38 8
1360 15 1
1361 18 5
1361 19 13
1361 20 2
1362 5 2
1362 38 4
1363 31 1
1364 7 5
1364 8 6
1365 2 1
1366 10 1
1366 23 1
1366 24 25
1367 38 1
1368 14 1
1369 4 3
1369 5 31
1369 31 1
1369 34 1
1369 38 32
1370 34 1
1371 5 5
1371 12 3
1371 14 3
1371 38 2
1372 34 1
1373 24 5
1374 26 1
1375 29 1
1376 3 1
1377 31 1
1378 29 2
1378 30 1
1379 2 1
1380 18 1
1381 2 8
1381 3 19
1381 8 1
1381 10 1
1381 34 24
1382 4 4
1382 5 11
1382 38 19
1383 22 1
1384 34 1
1385 9 1
1386 21 37
1386 22 36
1387 24 11
1388 2 1
1388 3 1
1388 34 2
1389 34 1
1390 17 1
1390 29 1
1390 30 1
1391 22 1
1392 29 2
1392 38 1
1393 18 1
1393 19 1
1394 34 1
1395 28 1
1396 2 1
1396 5 1
1396 18 39
1396 19 41
1396 20 15
1396 34 1
1397 2 17
1397 3 38
1397 34 26
1398 25 1
1399 4 1
1400 19 1
1401 21 10
1401 22 8
1402 29 5
1402 30 1
1403 2 2
1403 3 4
1403 34 5
1404 4 1
1405 2 1
1406 21 1
1407 21 4
1407 22 6
1408 25 1
1408 26 6
1409 5 1
1410 29 1
1411 1 1
1411 2 4
1411 3 8
1411 34 14
1412 2 1
1413 29 1
1414 3 1
1415 38 1
1416 26 1
1417 24 2
1418 10 1
1419 12 6
1419 14 5
1420 38 1
1421 34 1
1422 31 1
1423 26 1
1424 18 1
1424 19 2
1425 34 1
1426 19 1
1427 18 11
1427 19 26
1427 20 10
1428 22 1
1428 24 12
1429 7 6
1429 8 5
1430 9 1
1431 18 21
1431 19 37
1431 20 13
1432 8 1
1433 38 1
1434 15 12
1434 16 2
1434 17 7
1435 15 8
1435 16 3
1435 17 4
1436 3 1
1437 18 1
1438 5 1
1439 12 1
1440 12 14
1440 13 1
1440 14 6
1440 20 1
1441 2 16
1441 3 18
1441 34 13
1442 9 1
1443 18 3
1443 19 4
1443 20 2
1443 21 9
1443 22 7
1444 38 1
1445 15 1
1445 16 5
1445 17 3
1446 34 1
1447 2 1
1448 3 1
1449 29 1
1450 5 1
1450 18 1
1451 20 1
1451 29 1
1452 17 1
1453 5 1
1454 5 1
1455 5 2
1456 34 1
1457 38 1
1458 24 4
1459 4 1
1460 29 13
1460 30 1
1461 12 1
1462 8 1
1463 19 1
1464 18 39
1464 19 60
1464 20 20
1465 3 1
1465 18 2
1465 19 5
1465 21 1
1465 22 2
1466 5 1
1466 9 1
1467 31 9
1468 24 1
1469 38 1
1470 34 1
1471 31 1
1472 18 1
1473 3 1
1473 21 8
1473 22 6
1473 31 1
1474 3 1
1475 15 1
1475 16 2
1475 17 4
1476 24 12
1477 22 1
1478 2 2
1478 34 1
1479 2 1
1480 15 1
1481 38 1
1482 24 1
1483 21 2
1483 22 1
1483 38 1
1484 34 1
1485 14 1
1486 34 1
1487 2 1
1487 24 4
1488 22 1
1489 18 1
1490 38 1
1491 3 1
1491 5 1
1492 24 3
1493 3 1
1493 12 1
1493 24 22
1494 5 1
1494 38 1
1495 19 1
1496 26 1
1497 3 1
1497 8 1
1499 24 1
1500 15 1
1501 26 1
1502 29 3
1503 24 1
1504 22 1
1505 28 1
1506 12 16
1506 14 10
1508 5 1
1508 18 28
1508 19 53
1508 20 9
1509 3 1
1510 34 1
1511 18 1
1512 24 14
1513 5 3
1513 19 1
1513 38 5
1514 12 4
1514 14 5
1515 29 1
1516 21 1
1516 26 1
1517 3 1
1518 2 1
1518 21 22
1518 22 10
1519 14 1
1520 34 1
1521 19 1
1522 3 1
1523 24 1
1524 3 1
1525 21 1
1525 24 4
1525 29 5
1526 19 1
1527 28 9
1527 34 1
1528 3 1
1529 4 4
1529 5 18
1529 38 28
1530 28 9
1531 22 1
1532 24 1
1533 29 1
1534 5 1
1534 24 10
1535 5 7
1535 38 4
1536 2 8
1536 3 10
1536 34 8
1537 12 13
1537 13 2
1537 14 9
1538 5 1
1539 2 1
1539 31 1
1540 5 1
1541 29 9
1542 12 1
1543 19 1
1544 24 1
1545 3 1
1545 28 8
1546 3 1
1547 29 1
1548 18 27
1548 19 24
1548 20 2
1548 38 2
1549 11 1
1550 18 1
1551 7 1
1552 2 1
1553 7 2
1553 8 4
1554 8 1
1554 9 1
1554 10 1
1554 11 1
1554 34 1
1555 2 1
1556 28 7
1557 4 1
1558 18 9
1558 19 8
1559 3 3
1559 29 15
1559 30 1
1559 34 5
1559 38 1
1560 2 1
1560 28 2
1561 13 1
1562 38 1
1563 10 11
1563 11 1
1563 29 1
1564 24 1
1564 38 2
1565 7 1
1566 4 1
1566 9 1
1567 26 3
1568 19 1
1569 14 1
1570 9 1
1571 8 1
1572 1 1
1573 31 1
1574 15 1
1574 29 4
1575 5 1
1575 38 3
1576 31 1
1577 2 1
1578 8 1
1579 19 1
1579 38 1
1580 34 1
1581 18 1
1582 20 1
1583 7 5
1583 8 5
1584 18 2
1585 18 55
1585 19 66
1585 20 18
1585 29 1
1586 2 1
1586 3 1
1586 18 1
1586 34 2
1587 19 1
1588 19 2
1589 24 1
1590 24 2
1591 31 7
1592 29 1
1593 31 1
1594 19 1
1595 19 1
1596 2 1
1597 18 15
1597 19 21
1597 20 9
1598 9 1
1599 34 1
1600 18 1
1601 18 21
1601 19 22
1601 20 5
1602 3 1
1603 9 43
1603 10 57
1603 11 30
1604 29 7
1604 30 1
1605 15 1
1605 18 1
1606 15 1
1606 16 2
1607 26 1
1608 34 1
1609 29 1
1610 24 1
1611 2 10
1611 3 18
1611 34 18
1612 4 3
1612 5 12
1612 12 3
1612 24 1
1612 38 10
1613 10 1
1614 34 1
1615 22 1
1616 38 1
1617 38 1
1618 19 1
1619 10 1
1620 21 2
1620 22 2
1621 12 10
1621 14 7
1622 20 1
1623 31 3
1624 29 1
1625 23 1
1625 24 3
1625 28 1
1626 8 8
1627 12 1
1628 12 20
1628 14 15
1628 34 1
1629 20 1
1630 4 1
1630 5 11
1630 21 5
1630 22 2
1630 38 13
1631 5 1
1632 9 1
1632 11 1
1632 34 1
1633 18 1
1634 2 1
1634 3 1
1634 5 1
1634 12 1
1635 26 1
1636 19 1
1637 3 1
1637 25 1
1637 26 4
1638 34 1
1639 4 2
1639 5 7
1639 38 6
1640 3 1
1640 12 1
1640 18 1
1640 19 4
1641 21 1
1642 4 1
1642 5 1
1643 19 1
1644 34 1
1645 3 1
1645 7 6
1645 8 9
1646 10 1
1647 29 1
1648 31 4
1649 31 4
1650 12 2
1650 19 2
1651 34 1
1652 28 4
1653 14 1
1654 29 1
1655 30 1
1656 3 1
1657 12 3
1657 16 1
1658 38 1
1659 2 1
1659 24 1
1659 28 2
1660 9 1
1661 8 1
1661 14 1
1662 1 1
1662 2 3
1662 3 8
1662 29 1
1662 34 11
1663 9 6
1663 10 10
1663 11 6
1664 18 1
1665 18 1
1666 24 12
1667 34 1
1668 19 1
1669 18 1
1670 17 1
1671 18 1
1672 4 2
1672 5 17
1672 34 2
1672 38 12
1673 3 1
1674 10 1
1675 12 18
1675 14 6
1675 29 1
1676 28 2
1677 3 1
1678 5 7
1678 18 1
1678 38 12
1679 38 1
1680 11 1
1681 5 1
1681 38 1
1682 18 13
1682 19 22
1682 20 7
1682 24 1
1683 3 1
1684 29 1
1685 28 7
1686 34 1
1687 15 1
1687 17 1
1688 2 1
1688 30 1
1688 34 1
1689 29 2
1689 30 1
1690 4 2
1690 5 4
1690 28 1
1690 38 6
1691 4 3
1691 5 15
1691 38 22
1692 4 5
1692 5 20
1692 38 18
1693 21 1
1694 5 1
1694 29 5
1694 30 1
1695 16 1
1696 24 17
1697 10 2
1698 31 7
1699 31 1
1700 3 1
1701 9 1
1702 29 3
1703 26 1
1703 38 1
1704 26 1
1704 31 1
1705 29 4
1705 34 1
1706 34 1
1707 29 1
1708 12 29
1708 13 2
1708 14 31
1709 29 5
1709 30 1
1710 34 1
1711 18 1
1712 5 1
1713 10 1
1714 38 1
1715 1 2
1715 2 41
1715 3 58
1715 18 1
1715 34 75
1716 22 1
1717 34 1
1718 34 1
1719 34 1
1720 5 1
1721 4 7
1721 5 41
1721 16 1
1721 38 27
1722 3 2
1722 34 1
1723 19 1
1724 34 1
1725 5 1
1725 9 1
1725 10 2
1725 34 1
1726 21 10
1726 22 4
1727 38 1
1728 4 4
1728 5 39
1728 38 29
1729 2 1
1730 15 1
1731 24 3
1732 21 1
1733 5 1
1733 31 1
1733 34 1
1734 4 8
1734 5 25
1734 38 26
1735 4 3
1735 5 16
1735 38 15
1736 2 1
1737 24 1
1738 3 1
1739 34 1
1740 2 10
1740 3 12
1740 34 19
1741 2 1
1742 34 1
1743 5 1
1744 26 3
1745 5 1
1745 18 1
1746 18 10
1746 19 18
1746 20 1
1747 31 2
1748 18 1
1748 19 1
1748 38 1
1749 5 1
1750 29 3
1751 21 1
1751 22 1
1752 24 1
1753 34 1
1754 4 1
1754 9 4
1754 10 1
1754 11 1
1755 11 1
1756 12 1
1757 2 5
1757 3 15
1757 23 1
1757 24 4
1757 31 1
1757 34 23
1758 10 1
1758 31 3
1759 7 1
1760 4 1
1760 5 6
1760 21 5
1760 22 4
1760 24 1
1760 38 9
1761 18 1
1762 9 1
1763 19 1
1764 21 16
1764 22 14
1765 21 1
1766 29 10
1767 2 6
1767 3 45
1767 34 35
1768 29 2
1768 30 1
1769 38 1
1770 5 10
1770 38 16
1771 18 1
1771 29 8
1772 5 1
1773 9 6
1773 10 2
1773 34 1
1774 9 1
1775 31 8
1776 8 1
1777 31 1
1778 29 1
1779 19 1
1780 3 1
1781 2 1
1782 29 7
1783 24 4
1784 18 10
1784 19 7
1784 20 2
1785 9 5
1785 10 12
1785 11 7
1786 29 28
1786 30 3
1786 38 1
1787 4 1
1787 5 17
1787 38 15
1788 38 1
1789 38 1
1790 3 1
1790 4 2
1790 5 3
1790 38 1
1791 5 1
1792 5 2
1792 22 1
1792 38 3
1793 25 1
1793 26 5
1794 2 1
1795 4 4
1795 5 2
1795 38 8
1796 29 1
1797 7 1
1798 20 1
1799 9 6
1799 10 30
1799 11 12
1800 31 1
1801 5 1
1802 4 1
1802 5 14
1802 38 11
1803 2 6
1803 3 15
1803 31 1
1803 34 21
1804 9 4
1804 10 7
1804 11 2
1804 34 1
1805 28 3
1806 19 3
1806 20 1
1806 38 1
1807 5 1
1808 34 1
1809 21 1
1809 38 1
1810 34 1
1811 24 5
1812 26 3
1813 8 1
1813 31 13
1814 34 1
1815 24 1
1816 24 1
1817 2 1
1817 24 2
1817 29 1
1817 34 1
1818 34 1
1819 1 1
1819 2 17
1819 3 48
1819 28 1
1819 34 68
1820 18 1
1821 19 1
1822 17 1
1823 12 1
1824 26 1
1825 2 1
1826 34 1
1827 31 11
1828 14 1
1829 24 1
1830 19 1
1831 15 27
1831 16 14
1831 17 15
1832 34 1
1833 9 1
1833 10 2
1833 11 1
1834 12 1
1835 8 1
1836 1 1
1836 2 8
1836 3 11
1836 34 6
1837 29 2
1838 34 1
1839 4 4
1839 5 17
1839 38 25
1840 31 3
1841 21 7
1841 22 5
1842 31 16
1843 4 2
1843 5 10
1843 19 1
1843 38 9
1844 19 1
1845 3 1
1846 9 2
1846 10 4
1846 11 3
1847 18 5
1847 19 6
1847 20 1
1848 24 1
1849 8 1
1850 16 1
1851 12 2
1851 14 3
1852 24 11
1853 29 7
1853 30 3
1854 15 1
1855 21 1
1855 28 2
1856 16 1
1857 24 1
1858 18 1
1858 28 1
1858 29 1
1859 24 1
1860 24 1
1861 15 2
1861 16 1
1861 17 1
1862 3 1
1863 26 2
1864 10 1
1864 24 1
1865 31 4
1866 3 1
1867 2 9
1867 3 13
1867 26 5
1867 31 1
1867 34 9
1868 34 1
1869 24 26
1870 26 1
1871 4 1
1871 15 4
1871 16 3
1871 17 3
1871 19 1
1872 28 2
1873 18 1
1873 24 1
1874 14 1
1875 31 1
1876 29 11
1877 3 1
1877 29 7
1877 30 1
1878 24 1
1879 19 7
1879 20 5
1879 38 1
1880 29 1
1881 38 1
1882 12 4
1882 14 1
1882 19 1
1883 3 1
1884 18 1
1885 11 1
1886 3 1
1886 25 2
1886 26 13
1887 29 1
1888 21 3
1888 22 1
1889 9 1
1890 34 1
1891 34 1
1892 14 1
1893 34 1
1894 2 15
1894 3 35
1894 34 37
1895 24 1
1896 24 3
1897 5 1
1898 31 1
1899 22 1
1900 21 1
1900 24 4
1901 24 2
1902 2 1
1903 18 1
1904 3 1
1904 10 1
1905 21 1
1905 22 1
1905 38 1
1906 24 1
1907 14 1
1908 34 1
1909 4 3
1909 5 5
1909 18 1
1909 38 6
1910 19 2
1911 18 12
1911 19 17
1911 20 8
1912 8 1
1913 12 1
1914 5 1
1914 7 1
1914 31 1
1915 24 29
1916 24 1
1917 29 1
1917 38 1
1918 2 14
1918 3 13
1918 29 1
1918 34 16
1919 10 1
1919 18 1
1919 21 1
1920 2 2
1920 3 2
1921 5 1
1922 12 2
1923 24 11
1924 7 4
1924 8 4
1925 24 1
1926 19 1
1927 29 1
1927 31 1
1928 34 1
1929 34 1
1930 2 1
1930 12 3
1930 14 2
1931 29 1
1932 38 2
1933 18 1
1934 29 4
1934 30 2
1935 12 1
1935 29 6
1935 30 2
1936 26 1
1937 4 8
1937 5 17
1937 24 1
1937 38 21
1938 29 1
1938 31 2
1939 2 5
1939 3 12
1939 34 11
1940 8 1
1941 24 17
1941 29 1
1942 1 1
1942 2 5
1942 3 7
1942 34 14
1943 12 1
1944 24 14
1945 29 2
1946 9 1
1946 10 1
1946 11 1
1946 12 11
1946 14 1
1946 18 18
1946 19 24
1946 20 2
1947 12 36
1947 13 3
1947 14 23
1947 30 1
1948 31 8
1949 31 1
1950 4 4
1950 5 14
1950 38 14
1951 12 1
1952 4 3
1952 5 26
1952 38 32
1953 3 1
1954 3 1
1955 38 1
1956 3 1
1957 38 1
1958 11 1
1958 24 2
1959 34 1
1960 3 3
1960 34 6
1961 38 1
1962 7 2
1962 8 1
1962 9 1
1962 11 1
1962 18 5
1962 19 6
1962 20 1
1963 34 1
1964 12 2
1964 14 2
1965 4 4
1965 5 7
1965 18 3
1965 19 4
1965 38 9
1966 12 6
1966 14 8
1966 15 1
1967 4 1
1967 5 8
1967 38 7
1968 19 1
1969 24 1
1970 3 1
1970 18 4
1970 19 16
1970 20 8
1971 21 2
1972 11 1
1973 7 7
1973 8 16
1974 31 3
1975 15 5
1975 16 3
1975 17 5
1976 28 5
1977 31 24
1978 4 3
1978 5 24
1978 38 16
1979 29 1
1979 34 1
1980 24 1
1981 29 1
1982 24 1
1983 29 16
1984 3 1
1985 34 1
1986 15 2
1986 16 3
1986 17 3
1987 4 1
1987 5 5
1987 38 1
1988 8 1
1989 2 1
1989 3 1
1989 38 1
1990 11 1
1991 4 7
1991 5 29
1991 38 29
1992 18 10
1992 19 12
1992 20 3
1992 38 1
1993 38 1
1994 28 4
1994 29 4
1995 31 11
1996 9 3
1996 10 7
1996 11 4
1996 29 20
1997 31 5
1998 24 4
1999 11 1
2000 2 1
2001 21 14
2001 22 8
2002 2 1
2003 2 1
2004 2 1
2004 3 2
2004 12 1
2004 24 1
2004 34 6
2005 10 1
2006 2 1
2007 5 1
2008 21 7
2008 22 5
2009 26 2
2010 26 1
2011 9 4
2011 10 12
2011 11 5
2011 38 1
2012 4 3
2012 5 8
2012 38 9
2013 34 1
2014 34 1
2015 4 2
2015 5 15
2015 23 1
2015 24 9
2015 29 4
2015 38 12
2016 38 1
2017 14 1
2017 38 1
2018 9 5
2018 10 3
2018 11 2
2018 15 5
2018 16 4
2018 17 5
2019 1 1
2019 2 23
2019 3 39
2019 34 54
2020 34 1
2021 24 5
2022 18 1
2023 3 2
2023 34 1
2024 29 11
2025 5 1
2026 34 1
2027 9 1
2028 19 1
2029 29 1
2030 7 2
2030 8 10
2031 2 1
2032 5 1
2032 15 43
2032 16 23
2032 17 25
2033 18 3
2033 19 1
2033 20 1
2034 24 1
2035 3 1
2036 21 1
2036 22 1
2037 2 1
2038 18 1
2039 11 1
2039 31 1
2040 19 1
2041 3 1
2042 12 1
2043 29 3
2043 30 1
2044 5 1
2044 7 1
2044 8 2
2045 29 2
2046 24 2
2046 28 2
2047 2 1
2048 3 1
2049 10 1
2049 11 3
2050 2 1
2050 34 1
2051 21 36
2051 22 33
2052 17 1
2053 1 1
2053 2 10
2053 3 18
2053 34 33
2054 12 1
2055 31 1
2056 12 4
2056 14 5
2057 3 1
2057 10 1
2057 21 1
2058 5 1
2059 31 4
2060 15 1
2061 38 1
2062 12 1
2062 18 7
2062 19 18
2062 20 7
2063 24 16
2064 8 1
2065 18 1
2066 29 1
2067 9 1
2068 31 25
2069 7 14
2069 8 11
2069 13 1
2069 14 2
2070 12 1
2071 2 1
2072 24 3
2073 2 7
2073 3 14
2073 31 12
2073 34 10
2074 10 2
2074 11 1
2075 12 1
2075 34 1
2076 18 1
2077 21 1
2078 7 2
2078 8 6
2079 28 3
2080 31 1
2081 24 3
2082 34 1
2083 7 1
2084 3 1
2084 34 1
2085 32 1
2086 18 1
2087 18 36
2087 19 53
2087 20 20
2087 34 1
2088 12 1
2089 5 2
2089 18 5
2089 19 7
2089 20 7
2089 38 1
2090 38 1
2091 15 1
2092 29 1
2093 29 1
2094 18 1
2094 19 1
2095 3 1
2095 19 1
2096 21 1
2097 1 1
2097 2 9
2097 3 13
2097 19 1
2097 34 15
2098 5 1
2099 3 1
2100 28 2
2101 5 1
2102 25 1
2102 26 4
2102 29 1
2103 24 5
2104 24 1
2105 29 10
2105 30 2
2106 16 1
2107 38 1
2108 14 1
2108 21 4
2108 22 5
2108 34 1
2109 14 1
2110 26 1
2111 29 24
2111 30 1
2112 24 5
2113 34 1
2114 18 1
2115 19 1
2116 34 1
2117 28 4
2118 2 1
2119 2 1
2120 2 5
2120 3 10
2120 34 18
2121 21 1
2122 3 1
2123 5 9
2123 38 7
2124 3 1
2124 29 1
2124 38 2
2125 9 1
2126 1 1
2126 2 8
2126 3 14
2126 34 17
2127 29 1
2128 34 1
2129 31 1
2130 3 1
2130 11 1
2131 29 1
2132 9 5
2132 10 9
2133 19 1
2133 24 13
2134 3 1
2134 18 7
2134 19 9
2134 20 2
2135 29 6
2136 28 5
2137 5 1
2138 24 1
2139 4 1
2139 5 1
2139 38 1
2140 9 1
2140 10 7
2140 38 1
2141 19 1
2141 31 8
2142 11 1
2142 29 3
2142 30 1
2142 31 1
2143 14 1
2144 24 32
2144 38 1
2145 14 1
2146 26 4
2146 29 1
2147 29 5
2148 34 1
2149 19 1
2149 24 1
2150 3 1
2151 12 1
2152 29 1
2153 7 5
2153 8 5
2154 29 1
2154 31 16
2154 38 2
2155 31 1
2156 2 1
2156 24 9
2157 23 1
2157 24 6
2158 12 8
2158 14 4
2158 16 1
2158 17 1
2158 18 1
2158 19 4
2158 20 1
2159 12 1
2159 24 1
2159 28 2
2159 29 5
2159 30 1
2160 21 5
2160 22 4
2161 19 1
2162 21 1
2163 29 7
2163 30 1
2164 3 1
2165 3 1
2166 29 3
2167 7 1
2168 24 11
2169 22 1
2170 38 1
2171 18 1
2172 7 1
2173 21 1
2174 28 1
2175 8 1
2176 9 4
2176 10 5
2176 11 1
2177 21 1
2178 31 1
2178 38 1
2179 21 26
2179 22 13
2180 19 1
2180 38 2
2181 2 4
2181 3 3
2181 34 7
2182 38 1
2183 3 1
2184 3 1
2185 38 1
2186 4 2
2186 5 9
2186 38 6
2187 3 1
2187 11 1
2188 2 2
2188 3 11
2188 31 6
2188 34 18
2189 31 6
2190 20 1
2191 8 1
2192 19 2
2193 29 5
2194 5 1
2195 29 1
2196 2 1
2197 15 2
2198 29 1
2198 34 1
2199 24 2
2199 29 11
2199 30 1
2200 18 2
2200 19 5
2200 20 5
2201 18 1
2202 12 3
2202 14 5
2203 24 7
2204 18 1
2205 18 1
2205 19 1
2205 29 2
2206 4 4
2206 5 47
2206 38 40
2207 2 1
2208 34 1
2209 14 1
2210 25 1
2210 26 8
2211 34 1
2212 24 1
2212 29 10
2213 15 8
2213 16 2
2213 17 3
2214 5 1
2214 9 2
2214 10 1
2214 12 7
2214 14 4
2215 34 1
2216 15 1
2217 1 2
2217 2 43
2217 3 44
2217 34 56
2218 5 1
2218 7 1
2218 21 1
2219 12 1
2220 19 1
2220 31 1
2221 5 3
2221 38 2
2222 21 1
2223 23 1
2223 24 7
2223 31 1
2224 19 1
2224 29 11
2224 30 1
2225 21 6
2225 22 3
2226 5 1
2227 19 2
2228 29 5
2228 30 1
2229 15 1
2230 22 1
2231 8 1
2231 24 7
2232 19 1
2233 24 1
2234 4 6
2234 5 8
2234 38 9
2235 38 1
2236 24 1
2237 24 13
2237 26 2
2238 2 1
2239 29 1
2240 4 9
2240 5 67
2240 38 67
2241 24 1
2242 5 1
2243 24 1
2244 21 1
2244 31 12
2244 34 1
2245 19 1
2246 31 1
2247 24 3
2248 3 1
2248 25 1
2248 26 3
2248 34 1
2249 7 1
2250 29 1
2251 24 1
2252 31 4
2253 34 1
2254 2 10
2254 3 10
2254 34 10
2255 8 1
2255 12 3
2255 14 2
2256 15 9
2256 16 6
2256 17 6
2256 18 2
2256 19 6
2257 18 1
2257 19 3
2257 20 1
2258 12 4
2258 14 5
2259 24 7
2260 4 3
2260 5 11
2260 19 3
2260 38 16
2261 7 4
2261 8 6
2261 31 3
2262 24 1
2263 14 1
2264 9 2
2264 10 9
2264 11 6
2264 18 1
2264 19 1
2265 14 1
2266 2 12
2266 3 28
2266 34 32
2267 3 1
2268 11 1
2269 22 1
2269 28 3
2270 12 1
2270 22 1
2270 34 1
2271 11 1
2272 24 3
2273 14 1
2274 24 6
2275 38 1
2276 28 1
2277 19 1
2278 18 2
2279 5 1
2279 38 3
2280 18 5
2280 19 16
2280 20 6
2281 19 1
2282 38 1
2283 20 1
2284 29 1
2285 2 1
2286 2 10
2286 3 18
2286 34 24
2287 21 1
2287 22 1
2288 15 20
2288 16 9
2288 17 13
2289 38 1
2290 38 1
2291 19 1
2292 18 20
2292 19 33
2292 20 13
2292 25 1
2292 26 1
2293 20 1
2294 5 1
2294 12 1
2294 34 1
2295 29 1
2296 2 1
2296 5 1
2297 20 1
2298 29 1
2299 29 1
2300 29 1
2301 19 1
2302 29 2
2303 3 1
2304 24 6
2305 1 1
2305 2 1
2305 3 5
2305 34 5
2306 34 1
2307 4 1
2307 24 1
2308 15 9
2308 17 6
2309 3 1
2309 15 1
2310 12 1
2311 29 1
2311 30 1
2312 5 2
2312 38 5
2313 26 3
2313 31 2
2314 28 2
2315 5 2
2315 38 3
2316 19 1
2317 21 1
2318 19 1
2319 2 7
2319 3 5
2319 24 1
2319 34 7
2320 4 1
2321 27 1
2321 28 1
2322 10 1
2322 20 1
2323 12 1
2324 20 1
2325 3 1
2326 18 55
2326 19 55
2326 20 22
2327 16 1
2327 24 14
2328 31 1
2329 19 1
2330 20 1
2331 20 1
2332 1 3
2332 2 41
2332 3 46
2332 34 47
2333 24 10
2334 5 1
2334 23 1
2334 24 5
2334 28 1
2335 3 1
2336 29 1
2337 12 1
2338 3 1
2338 28 2
2339 12 1
2340 24 10
2341 24 4
2342 29 12
2342 34 1
2343 4 1
2344 34 1
2345 22 1
2345 34 1
2346 26 1
2347 12 1
2348 18 1
2349 19 1
2350 15 1
2351 21 15
2351 22 13
2352 3 1
2352 29 2
2353 24 5
2354 38 2
2355 10 1
2356 15 1
2357 2 2
2357 3 6
2357 29 1
2357 34 9
2358 3 1
2359 38 1
2360 3 1
2361 14 1
2362 38 1
2363 2 19
2363 3 24
2363 34 33
2364 31 1
2365 4 5
2365 5 29
2365 26 1
2365 38 27
2366 1 2
2366 2 20
2366 3 33
2366 34 47
2367 24 6
2368 5 3
2369 10 1
2369 12 5
2369 14 2
2370 29 2
2371 2 1
2372 8 2
2372 15 10
2372 16 7
2372 17 5
2373 5 1
2374 5 2
2375 21 1
2376 5 1
2377 9 11
2377 10 18
2377 11 17
2378 28 6
2379 18 9
2379 19 8
2379 20 1
2380 12 5
2380 14 11
2380 21 2
2380 22 2
2381 1 1
2382 38 1
2383 5 1
2384 18 1
2385 31 1
2386 24 1
2387 21 3
2387 22 4
2388 12 2
2388 14 3
2388 18 2
2388 19 1
2388 20 1
2388 21 5
2388 22 6
2389 28 3
2390 10 1
2391 34 1
2392 21 2
2393 3 1
2394 29 11
2395 31 1
2396 19 1
2397 29 1
2398 18 5
2398 19 9
2398 20 2
2399 34 1
2400 21 7
2400 22 4
2401 28 1
2401 29 1
2402 2 1
2403 24 1
2404 29 3
2404 30 1
2405 10 1
2406 29 1
2407 2 1
2408 29 1
2409 10 1
2410 19 1
2410 38 1
2411 38 1
2412 5 1
2413 31 4
2414 3 1
2415 34 1
2416 3 1
2417 16 1
2418 3 1
2418 34 1
2419 34 1
2420 34 3
2421 4 1
2422 12 1
2422 14 2
2422 21 7
2422 22 6
2423 31 26
2424 2 9
2424 3 14
2424 34 21
2425 21 3
2425 22 6
2426 19 1
2427 25 1
2428 11 1
2429 16 1
2430 38 1
2431 2 1
2432 24 1
2433 19 1
2434 5 1
2435 31 3
2436 1 1
2436 2 10
2436 3 25
2436 29 1
2436 34 31
2437 22 1
2437 38 1
2438 14 1
2439 3 1
2439 24 10
2440 2 14
2440 3 10
2440 29 1
2440 34 14
2441 3 1
2441 14 1
2441 21 1
2442 5 1
2443 9 18
2443 10 35
2443 11 8
2443 14 1
2444 29 4
2445 12 1
2445 21 1
2446 5 1
2447 31 5
2448 4 2
2448 5 17
2448 38 17
2449 19 2
2450 10 1
2451 34 1
2452 3 1
2452 19 1
2453 26 2
2454 1 1
2454 2 7
2454 3 14
2454 24 2
2454 31 2
2454 34 15
2455 34 1
2456 25 1
2456 26 2
2457 2 1
2457 9 1
2457 10 1
2457 11 1
2457 12 1
2457 14 2
2457 18 5
2457 19 3
2457 20 2
2458 34 1
2459 3 1
2459 29 1
2459 30 1
2460 19 1
2461 24 1
2461 28 1
2461 31 1
2462 18 1
2462 19 5
2462 20 2
2463 34 1
2464 19 1
2465 2 2
2465 24 4
2465 34 4
2466 4 1
2466 5 8
2466 16 1
2466 24 2
2466 29 2
2466 38 7
2467 29 6
2467 30 1
2468 38 1
2469 19 2
2470 8 2
2470 21 1
2470 22 1
2471 29 1
2472 11 1
2473 1 1
2473 2 8
2473 3 14
2473 34 8
2474 29 1
2475 28 2
2476 21 1
2477 34 1
2477 38 3
2478 38 1
2479 21 7
2479 22 3
2480 34 1
2481 28 2
2481 34 1
2482 5 1
2483 4 2
2483 5 3
2483 38 1
2484 7 10
2484 8 17
2485 24 4
2485 29 1
2486 24 2
2486 28 10
2486 29 7
2487 8 1
2488 24 1
2489 28 3
2490 14 1
2490 19 1
2491 25 1
2492 29 9
2492 30 1
2493 29 22
2493 30 2
2494 24 1
2495 21 1
2496 34 1
2497 10 1
2498 16 1
2499 3 1
2499 38 1
2500 21 17
2500 22 5
2501 3 1
2502 2 1
2502 4 2
2502 5 3
2502 38 6
2503 14 1
2503 18 1
2504 34 1
2505 28 1
2506 5 1
2507 28 1
2508 4 3
2508 5 5
2508 38 5
2509 24 10
2510 24 11
2511 8 1
2512 38 1
2513 28 3
2514 21 1
2514 22 2
2515 4 4
2515 5 32
2515 38 29
2516 11 1
2517 2 1
2518 2 1
2518 7 15
2518 8 11
2519 24 1
2520 28 3
2521 28 1
2522 19 1
2523 21 21
2523 22 9
2524 19 1
2524 24 1
2525 24 7
2526 12 1
2527 7 6
2527 8 8
2527 19 1
2528 10 1
2529 38 1
2530 3 1
2531 8 1
2532 10 1
2532 18 1
2533 4 1
2533 5 1
2533 38 4
2534 17 1
2535 24 1
2536 24 6
2537 20 1
2537 24 11
2538 15 2
2539 1 1
2539 12 10
2539 14 5
2540 26 5
2541 17 1
2542 18 30
2542 19 26
2542 20 3
2543 31 1
2544 29 11
2544 30 1
2545 28 2
2545 38 1
2546 3 4
2546 21 1
2546 34 1
2547 28 6
2548 20 1
2549 18 1
2550 29 1
2550 30 1
2551 18 1
2552 22 1
2552 24 6
2552 29 1
2553 28 1
2554 14 2
2554 31 1
2554 34 1
2555 12 2
2555 14 1
2556 7 1
2556 8 2
2557 29 12
2557 30 2
2558 4 1
2559 31 1
2560 11 1
2561 24 1
2562 3 1
2562 24 1
2562 34 2
2563 2 1
2564 18 1
2565 2 18
2565 3 21
2565 34 24
2566 34 1
2567 12 1
2568 34 1
2569 5 1
2570 2 1
2570 12 9
2570 14 3
2571 24 4
2572 28 2
2573 18 2
2573 19 1
2573 20 3
2574 4 4
2574 5 33
2574 38 30
2575 4 1
2576 2 1
2576 3 19
2576 34 24
2577 38 1
2578 2 1
2579 2 10
2579 3 12
2579 19 1
2579 34 20
2580 5 1
2580 11 1
2580 15 1
2581 29 1
2582 14 1
2583 20 1
2584 34 1
2585 21 1
2586 24 16
2587 24 1
2588 12 2
2589 29 5
2590 38 1
2591 29 1
2592 18 1
2592 28 1
2593 8 1
2594 34 1
2595 24 1
2596 4 5
2596 5 25
2596 38 31
2597 4 1
2598 3 1
2599 29 10
2600 31 5
2601 10 1
2601 34 1
2602 2 1
2603 22 1
2604 7 1
2604 24 8
2605 19 1
2605 22 1
2606 19 1
2607 14 1
2607 34 1
2608 15 1
2608 16 1
2608 17 1
2608 24 1
2609 34 1
2610 12 1
2610 24 6
2610 29 1
2611 2 7
2611 3 15
2611 34 21
2611 38 1
2612 12 6
2612 14 3
2613 24 1
2614 10 2
2615 2 1
2616 7 2
2616 8 3
2617 29 1
2619 12 1
2620 31 5
2621 15 4
2621 16 4
2621 17 3
2621 18 4
2621 19 7
2621 20 7
2622 18 1
2623 2 11
2623 3 4
2623 34 13
2624 24 1
2625 31 3
2626 7 4
2626 8 9
2627 15 7
2627 17 4
2628 3 1
2629 15 1
2630 3 1
2630 18 1
2631 34 1
2632 18 1
2633 11 1
2633 18 2
2633 19 1
2634 3 1
2635 7 1
2635 8 2
2636 3 1
2637 29 1
2638 29 6
2639 24 3
2639 28 1
2640 2 1
2641 14 2
2642 5 1
2642 15 6
2642 16 1
2642 17 2
2643 21 1
2644 2 1
2645 3 1
2646 22 1
2646 31 1
2647 34 1
2648 24 1
2649 2 3
2649 3 8
2649 12 1
2649 34 10
2650 4 6
2650 5 29
2650 38 27
2651 25 1
2651 26 5
2652 5 1
2653 29 14
2653 30 1
2654 2 1
2654 22 1
2655 2 1
2655 3 7
2655 34 10
2656 22 1
2657 14 1
2658 24 1
2658 31 8
2659 21 1
2660 14 1
2661 2 26
2661 3 46
2661 31 15
2661 34 69
2662 3 1
2662 9 7
2662 10 16
2662 11 8
2663 11 1
2663 26 1
2664 2 1
2665 21 2
2665 22 1
2666 5 1
2666 10 1
2667 2 1
2667 7 15
2667 8 23
2668 8 1
2668 14 1
2669 15 7
2669 16 4
2669 17 12
2670 34 1
2671 29 2
2672 29 2
2673 11 1
2674 26 1
2675 3 1
2675 10 1
2676 34 1
2677 29 1
2678 34 1
2679 14 1
2680 15 1
2681 3 1
2682 19 2
2682 20 1
2683 18 7
2683 19 8
2683 20 2
2684 9 1
2684 21 1
2685 3 1
2686 18 4
2686 19 7
2686 20 3
2686 31 1
2687 29 1
2688 15 1
2689 2 1
2689 3 8
2689 34 8
2690 24 15
2691 4 1
2692 5 1
2693 3 1
2694 2 1
2694 3 3
2694 34 6
2695 24 1
2696 28 5
2697 18 2
2697 19 2
2698 34 1
2699 5 1
2700 24 3
2700 29 1
2701 15 21
2701 16 19
2701 17 13
2701 24 1
2702 10 1
2703 12 2
2704 8 4
2705 38 1
2706 18 2
2707 2 1
2707 34 4
2708 19 1
2709 34 1
2710 2 1
2711 24 3
2712 5 1
2713 4 2
2713 5 9
2713 26 6
2713 38 15
2714 26 1
2715 4 1
2716 28 1
2717 26 3
2718 11 1
2718 28 6
2719 2 1
2719 34 1
2720 1 1
2720 2 10
2720 3 13
2720 34 15
2721 3 2
2721 34 2
2721 38 1
2722 2 1
2723 7 1
2723 15 1
2723 17 1
2723 29 8
2724 26 1
2725 12 18
2725 14 5
2726 10 1
2726 12 14
2726 14 3
2727 10 1
2728 3 1
2728 5 1
2729 34 1
2730 29 3
2731 38 1
2732 2 1
2733 24 1
2734 3 1
2734 22 1
2734 34 1
2735 24 1
2735 28 1
2736 15 1
2736 16 1
2737 2 8
2737 3 11
2737 34 10
2738 34 1
2739 31 1
2740 2 1
2741 28 1
2742 2 1
2743 18 11
2743 19 8
2743 20 2
2744 19 1
2745 15 2
2745 16 2
2745 18 1
2745 24 1
2746 31 1
2747 3 1
2748 15 1
2749 2 1
2750 38 1
2751 3 1
2752 24 1
2753 10 1
2754 31 13
2755 18 1
2756 31 1
2757 12 1
2758 29 3
2759 4 1
2760 38 1
2761 28 3
2762 5 6
2762 12 5
2762 14 4
2762 38 5
2763 31 8
2764 38 1
2765 29 1
2766 18 1
2767 29 1
2768 22 1
2769 1 1
2769 2 1
2769 3 4
2769 34 5
2770 17 1
2771 31 2
2772 19 2
2772 24 1
2773 34 1
2774 3 1
2774 34 2
2775 24 2
2776 9 1
2776 10 3
2776 11 2
2776 38 1
2777 4 3
2777 5 10
2777 38 10
2778 31 5
2779 3 2
2779 34 6
2780 29 1
2781 2 1
2781 24 8
2782 29 23
2782 30 1
2782 34 1
2783 20 1
2783 29 11
2783 30 1
2784 8 2
2785 26 1
2786 12 2
2786 24 2
2787 15 1
2788 38 1
2789 12 1
2790 16 2
2790 18 4
2790 19 11
2790 20 4
2791 5 1
2792 24 10
2793 3 1
2794 29 1
2795 26 6
2796 3 1
2797 3 1
2797 22 1
2798 19 1
2799 3 1
2800 4 18
2800 5 76
2800 38 67
2801 10 1
2801 21 2
2802 21 1
2803 4 1
2803 5 3
2803 38 2
2804 1 3
2804 2 16
2804 3 41
2804 34 35
2805 11 1
2806 7 11
2806 8 23
2806 24 1
2807 17 1
2808 18 1
2808 19 5
2808 20 1
2809 8 1
2810 19 1
2810 24 1
2811 10 1
2811 15 2
2811 16 2
2811 17 1
2812 4 1
2813 18 2
2813 19 1
2813 20 1
2813 34 1
2814 9 1
2814 24 2
2815 18 1
2815 19 1
2815 22 1
2815 24 1
2816 5 1
2817 34 1
2818 38 1
2819 12 1
2820 10 1
2821 18 2
2821 19 2
2822 4 6
2822 5 13
2822 38 32
2823 21 1
2824 19 1
2825 24 6
2826 22 1
2827 4 8
2827 5 26
2827 34 2
2827 38 29
2828 31 1
2829 29 1
2830 28 1
2831 22 1
2832 10 1
2833 24 1
2834 7 4
2834 8 9
2835 24 8
2836 12 11
2836 13 1
2836 14 2
2837 26 1
2838 5 2
2839 3 2
2840 12 8
2840 14 3
2841 5 2
2841 38 2
2842 38 1
2843 7 2
2843 8 6
2844 12 1
2844 13 1
2845 4 1
2845 5 4
2845 7 1
2845 8 1
2845 38 4
2846 25 1
2846 26 4
2847 2 1
2848 5 1
2848 38 1
2849 5 1
2849 29 1
2850 12 1
2850 14 2
2851 31 9
2852 24 1
2853 34 1
2854 31 1
2855 3 1
2856 38 1
2857 3 1
2858 3 1
2859 29 1
2860 29 25
2860 30 1
2861 2 7
2861 3 21
2861 34 26
2862 4 3
2862 5 12
2862 38 19
2863 5 1
2864 24 1
2865 5 1
2866 31 2
2867 25 1
2867 26 3
2867 38 1
2868 2 3
2868 3 4
2868 29 3
2868 34 9
2869 38 1
2870 29 6
2871 2 5
2871 3 12
2871 34 5
2872 34 1
2873 26 3
2874 5 1
2874 38 4
2875 18 1
2875 34 1
2876 34 1
2877 15 3
2877 16 3
2877 17 3
2878 19 1
2879 5 1
2879 15 7
2879 16 8
2879 17 3
2880 5 1
2880 25 1
2880 26 2
2880 29 3
2880 38 1
2881 21 1
2881 22 1
2882 19 1
2883 18 1
2884 28 7
2885 5 1
2886 24 13
2886 25 1
2886 26 1
2887 7 1
2887 8 1
2887 11 1
2887 16 1
2887 17 1
2888 22 1
2889 38 1
2890 31 1
2891 31 1
2892 1 1
2892 2 5
2892 3 13
2892 34 24
2893 17 1
2894 3 1
2895 24 21
2896 15 1
2897 2 4
2897 3 26
2897 34 26
2898 18 17
2898 19 10
2898 20 6
2899 34 1
2900 29 2
2901 4 3
2901 5 6
2901 38 10
2902 5 1
2903 12 3
2903 14 2
2904 34 1
2905 14 1
2906 18 1
2907 31 3
2908 24 5
2908 26 1
2909 12 4
2909 14 5
2910 29 1
2910 30 1
2911 21 1
2912 17 1
2913 18 13
2913 19 23
2913 20 18
2913 24 1
2914 31 8
2915 10 1
2916 1 1
2916 2 4
2916 3 6
2916 34 12
2917 31 10
2918 5 1
2918 18 48
2918 19 53
2918 20 14
2918 34 1
2919 10 1
2920 5 3
2920 15 1
2920 38 9
2921 1 1
2921 2 6
2921 3 12
2921 26 1
2921 34 14
2922 8 1
2922 28 4
2923 1 2
2923 2 9
2923 3 30
2923 34 45
2924 14 1
2925 34 1
2926 29 1
2927 24 1
2927 29 1
2928 29 1
2929 34 1
2930 21 1
2931 15 1
2932 29 1
2932 30 1
2933 18 1
2934 4 3
2934 5 9
2934 38 13
2935 5 1
2935 8 1
2936 34 1
2937 22 1
2938 19 1
2939 24 5
2939 34 1
2940 18 1
2941 2 7
2941 3 8
2941 34 5
2942 15 1
2943 38 1
2944 31 1
2944 34 1
2945 29 4
2945 34 1
2946 5 1
2947 19 1
2948 21 1
2949 26 1
2950 19 1
2951 21 1
2952 11 1
2952 19 1
2953 5 1
2954 3 1
2955 22 1
2956 12 1
2957 2 1
2958 28 1
2959 18 1
2959 31 19
2959 34 1
2960 5 1
2961 19 1
2961 29 1
2962 4 2
2962 5 8
2962 38 9
2963 28 1
2964 29 1
2965 18 1
2965 28 5
2966 2 1
2967 29 1
2968 2 18
2968 3 21
2968 24 5
2968 34 28
2969 24 3
2970 21 1
2970 22 2
2971 29 2
2972 31 1
2973 14 1
2974 5 1
2974 19 1
2975 5 1
2976 7 1
2976 19 2
2977 9 1
2977 16 1
2977 17 1
2977 19 1
2978 8 1
2979 29 3
2979 30 1
2980 29 8
2981 38 1
2982 3 1
2982 15 1
2983 24 11
2983 28 1
2984 34 1
2985 29 1
2986 18 2
2986 20 2
2986 24 1
2987 28 1
2987 29 1
2988 31 1
2989 9 1
2989 21 8
2989 22 7
2990 3 1
2991 26 1
2991 28 2
2992 3 1
2992 8 1
2993 28 1
2994 3 1
2995 19 1
2996 5 1
2996 9 16
2996 10 23
2996 11 11
2996 14 4
2996 22 1
2997 24 1
2998 17 1
2999 5 1
3000 24 1
3001 19 1
3002 24 1
3003 38 1
3004 18 1
3004 19 2
3005 14 1
3005 34 1
3006 38 1
3007 34 1
3008 9 2
3008 10 2
3008 11 3
3009 8 1
3010 15 2
3010 16 2
3011 2 1
3011 29 1
3011 34 1
3012 22 1
3013 8 1
3014 18 2
3015 34 1
3016 21 1
3017 5 9
3017 38 11
3018 3 1
3018 15 2
3019 2 25
3019 3 35
3019 34 39
3020 18 1
3020 26 2
3021 31 3
3022 31 1
3023 38 2
3024 3 1
3025 38 1
3026 34 1
3027 7 1
3027 38 1
3028 30 1
3029 22 1
3030 2 1
3031 19 1
3032 29 12
3032 30 1
3033 24 1
3034 1 1
3034 2 15
3034 3 28
3034 16 1
3034 24 39
3034 34 27
3035 18 30
3035 19 17
3035 20 9
3036 34 1
3037 5 1
3038 29 22
3038 30 1
3039 34 1
3040 18 1
3040 19 5
3040 20 2
3040 28 1
3041 2 2
3041 3 13
3041 34 8
3042 38 1
3043 17 1
3044 2 1
3045 2 1
3045 3 4
3045 34 12
3046 29 1
3047 24 23
3047 31 1
3048 7 1
3049 26 3
3049 29 11
3049 30 3
3050 2 10
3050 3 14
3050 10 1
3050 34 12
3051 26 11
3052 18 1
3052 19 1
3053 18 1
3053 20 1
3054 19 1
3055 2 1
3056 17 1
3056 20 1
3057 19 1
3058 3 1
3058 8 1
3059 2 4
3059 3 2
3059 34 4
3060 2 1
3061 18 2
3061 20 2
3062 17 1
3063 31 8
3064 24 1
3065 21 4
3065 22 4
3066 18 3
3066 19 7
3066 20 9
3067 5 1
3068 2 1
3068 18 4
3068 19 4
3068 20 3
3069 29 1
3070 2 4
3070 3 6
3070 34 9
3071 12 1
3071 24 17
3071 38 1
3072 1 1
3072 3 3
3072 31 1
3072 34 1
3073 22 1
3074 3 1
3075 7 1
3075 8 1
3075 9 2
3075 10 1
3075 11 1
3076 18 5
3076 19 8
3076 20 2
3077 26 1
3077 29 3
3078 2 4
3078 3 11
3078 34 12
3079 29 4
3080 5 1
3081 23 1
3081 24 7
3081 34 1
3082 5 1
3082 28 10
3083 34 1
3084 18 1
3085 19 1
3086 4 1
3086 5 5
3086 38 7
3087 9 23
3087 10 31
3087 11 20
3087 15 3
3087 16 1
3087 17 1
3088 31 9
3089 38 1
3090 2 16
3090 3 39
3090 34 35
3091 9 7
3091 10 8
3091 11 1
3092 24 1
3093 28 4
3094 8 1
3095 5 1
3096 16 1
3096 17 1
3096 22 1
3097 38 1
3098 12 1
3099 34 1
3100 18 1
3100 29 5
3100 30 1
3101 19 4
3101 20 5
3102 21 1
3103 3 1
3104 24 6
3105 3 1
3106 29 18
3107 2 1
3107 7 1
3107 18 1
3108 21 2
3108 22 5
3109 28 1
3110 10 1
3110 29 5
3110 30 1
3110 38 1
3111 12 5
3111 14 6
3111 34 1
3112 10 1
3112 11 3
3113 26 5
3114 24 1
3115 29 1
3116 29 9
3117 5 1
3118 3 1
3119 31 1
3120 2 1
3120 26 1
3121 12 1
3122 18 1
3123 24 7
3124 19 1
3125 5 1
3126 12 31
3126 13 1
3126 14 31
3126 24 1
3127 19 1
3128 31 1
3129 12 1
3130 19 1
3130 29 18
3131 15 1
3132 22 1
3133 3 1
3134 3 1
3135 3 1
3136 34 1
3137 18 1
3138 24 21
3139 28 1
3140 12 2
3140 14 1
3141 12 1
3141 24 1
3142 21 1
3143 2 1
3144 24 34
3144 38 1
3145 12 1
3146 28 3
3147 12 10
3147 13 1
3147 14 6
3147 18 1
3147 19 3
3147 29 1
3148 24 6
3149 3 1
3149 34 2
3150 3 1
3151 18 1
3152 18 1
3152 29 3
3153 2 3
3153 3 1
3153 29 5
3153 34 1
3154 29 1
3155 24 12
3156 5 1
3157 18 1
3158 18 1
3159 34 1
3160 24 1
3160 38 1
3161 11 1
3161 24 13
3161 28 4
3162 15 1
3163 5 2
3164 9 4
3164 10 8
3164 11 7
3165 18 19
3165 19 28
3165 20 4
3166 4 1
3166 5 2
3166 26 1
3167 5 1
3167 9 3
3167 10 4
3167 11 2
3168 31 1
3169 18 21
3169 19 27
3169 20 17
3170 22 1
3171 28 5
3172 16 1
3173 26 2
3174 29 1
3175 18 1
3176 5 1
3177 4 7
3177 5 20
3177 34 1
3177 38 21
3178 20 1
3179 24 15
3180 24 10
3181 4 2
3181 5 15
3181 21 1
3181 38 9
3182 2 1
3182 24 2
3183 15 30
3183 16 12
3183 17 10
3184 29 1
3185 29 1
3186 2 1
3187 3 1
3187 22 1
3188 38 1
3189 28 2
3190 16 1
3190 34 1
3191 5 1
3191 18 3
3191 19 9
3191 20 4
3191 34 1
3192 14 1
3192 31 2
3193 24 1
3194 5 2
3194 25 1
3194 26 2
3194 38 2
3195 3 1
3196 2 5
3196 3 28
3196 29 20
3196 30 1
3196 34 32
3197 5 1
3198 24 1
3199 4 11
3199 5 36
3199 38 44
3200 18 1
3201 12 11
3201 13 1
3201 14 6
3201 20 1
3202 31 1
3203 24 4
3204 4 6
3204 5 19
3204 38 14
3205 24 1
3206 34 1
3207 16 1
3208 24 2
3209 18 1
3209 20 3
3210 15 1
3211 2 2
3211 3 1
3211 26 9
3211 29 2
3211 34 1
3212 12 1
3213 34 1
3214 3 1
3215 3 1
3215 4 1
3215 5 7
3215 18 2
3215 19 6
3215 20 1
3215 38 4
3216 26 8
3216 29 2
3217 2 9
3217 3 25
3217 34 27
3218 18 1
3219 2 1
3220 19 1
3221 18 1
3222 5 3
3222 7 3
3222 9 4
3222 10 6
3222 11 2
3222 38 3
3223 31 11
3224 26 1
3225 29 30
3225 30 2
3226 17 1
3227 24 1
3228 5 3
3228 38 4
3229 1 2
3229 2 31
3229 3 53
3229 34 69
3230 24 1
3231 5 1
3232 34 1
3233 29 1
3234 24 1
3235 3 1
3236 29 5
3237 34 1
3238 25 1
3238 26 1
3238 34 1
3239 26 4
3239 28 2
3240 12 7
3240 14 2
3241 9 2
3241 11 4
3242 7 1
3243 38 1
3244 7 1
3245 34 1
3246 28 2
3247 2 1
3248 34 2
3249 29 1
3250 15 4
3250 16 3
3250 17 3
3251 19 1
3251 24 2
3252 19 1
3253 19 1
3253 38 1
3254 34 1
3255 18 3
3255 19 3
3255 20 1
3256 29 12
3256 30 1
3257 21 2
3258 24 1
3259 5 1
3260 31 8
3261 29 1
3262 25 2
3262 26 16
3263 3 1
3264 8 1
3265 2 6
3265 3 4
3265 34 10
3266 4 1
3267 29 5
3267 30 1
3267 31 2
3268 19 2
3269 2 1
3270 2 1
3271 18 1
3271 28 3
3271 31 1
3272 24 15
3273 24 1
3274 38 1
3275 5 1
3276 24 2
3277 9 3
3277 10 5
3278 31 5
3279 34 2
3280 34 1
3281 2 11
3281 3 8
3281 34 26
3282 18 4
3282 19 3
3282 20 2
3283 9 3
3283 10 3
3283 11 1
3284 14 2
3285 3 1
3285 12 6
3285 14 8
3286 4 2
3286 5 8
3286 38 4
3287 21 8
3287 22 11
3288 18 2
3288 19 1
3288 21 27
3288 22 17
3289 21 1
3290 17 1
3291 22 1
3292 20 1
3293 18 1
3294 28 8
3294 34 1
3295 22 1
3296 9 1
3297 38 1
3298 31 5
3298 34 1
3299 5 1
3300 29 9
3300 30 1
3301 9 1
3301 12 1
3302 2 1
3303 5 1
3304 10 1
3304 24 1
3305 10 1
3305 11 1
3306 2 2
3306 3 3
3306 34 5
3307 22 1
3308 12 3
3308 14 4
3309 31 1
3310 19 1
3311 2 1
3312 12 29
3312 13 1
3312 14 28
3313 17 1
3314 15 1
3314 21 18
3314 22 28
3315 34 1
3316 29 3
3317 2 3
3317 3 1
3317 34 2
3318 21 14
3318 22 8
3319 12 1
3320 7 1
3321 29 3
3321 30 2
3322 24 3
3323 22 1
3324 29 17
3324 30 1
3324 34 2
3325 22 2
3326 2 1
3327 2 6
3327 3 10
3327 34 22
3328 24 2
3329 31 3
3330 38 2
3331 17 1
3332 21 11
3332 22 3
3333 16 1
3334 22 1
3335 29 1
3336 21 1
3336 22 3
3337 21 6
3337 22 8
3338 5 1
3339 4 2
3339 5 3
3339 38 11
3340 24 5
3340 34 1
3341 26 1
3341 28 3
3342 31 3
3343 5 1
3344 15 1
3345 31 5
3346 20 1
3347 21 11
3348 2 4
3348 3 8
3348 34 7
3349 29 2
3349 30 1
3350 2 2
3350 3 4
3350 34 1
3351 24 3
3352 28 1
3353 4 1
3353 10 1
3353 18 2
3353 19 8
3353 20 2
3354 31 1
3355 8 1
3355 19 1
3356 19 1
3357 34 1
3358 15 1
3358 31 13
3359 2 1
3360 2 1
3361 3 1
3361 5 1
3362 9 3
3362 10 11
3362 11 2
3363 21 1
3364 3 2
3364 5 1
3365 24 1
3366 29 1
3367 9 9
3367 10 13
3367 11 2
3368 7 1
3369 2 6
3369 3 7
3369 28 2
3369 29 4
3369 34 11
3370 21 1
3371 3 1
3372 21 18
3372 22 19
3373 34 1
3374 14 1
3374 31 7
3375 19 1
3375 34 1
3376 29 3
3376 31 1
3376 34 1
3377 1 1
3377 2 3
3377 3 6
3377 34 11
3378 29 2
3379 29 10
3380 24 11
3381 25 1
3381 26 7
3382 3 1
3382 26 2
3382 34 1
3383 24 1
3384 22 1
3385 5 1
3385 9 1
3386 24 1
3387 2 2
3387 3 2
3387 28 1
3387 29 1
3387 34 1
3388 12 23
3388 13 1
3388 14 13
3389 5 1
3390 12 1
3391 34 1
3392 5 2
3392 18 4
3392 19 10
3392 20 3
3392 38 2
3393 14 1
3394 4 1
3395 15 4
3395 16 3
3395 17 8
3396 38 1
3397 24 16
3397 34 1
3398 24 1
3399 4 2
3399 5 10
3399 38 5
3400 5 1
3401 31 1
3402 21 2
3402 22 4
3403 21 1
3404 18 2
3404 19 5
3404 20 1
3404 28 1
3405 29 1
3405 34 1
3406 2 7
3406 3 10
3406 34 17
3407 26 1
3407 34 1
3408 20 1
3409 18 1
3410 8 1
3411 24 15
3411 34 1
3412 14 1
3413 26 3
3414 12 15
3414 14 8
3415 15 6
3415 16 2
3415 17 1
3415 38 1
3416 22 1
3417 22 1
3418 18 1
3418 38 1
3419 7 1
3419 24 10
3419 28 1
3420 34 1
3421 34 1
3422 11 1
3423 24 2
3424 24 1
3425 1 1
3425 2 8
3425 3 3
3425 34 6
3426 24 2
3427 4 5
3427 5 20
3427 28 4
3427 38 25
3428 12 1
3428 34 1
3429 15 33
3429 16 12
3429 17 22
3429 38 1
3430 19 1
3431 12 1
3431 14 1
3431 21 1
3432 12 16
3432 13 3
3432 14 14
3433 5 2
3433 18 8
3433 19 13
3433 20 4
3434 24 1
3435 5 1
3436 28 1
3437 2 6
3437 3 13
3437 34 18
3438 10 1
3438 12 1
3438 19 1
3438 24 3
3439 31 5
3440 1 1
3440 2 16
3440 3 12
3440 29 2
3440 34 29
3441 1 1
3441 2 5
3441 3 7
3441 34 13
3442 2 1
3442 3 1
3443 2 2
3443 34 8
3444 3 1
3445 24 1
3446 17 1
3447 24 1
3448 34 1
3449 5 1
3449 12 38
3449 14 27
3450 19 1
3451 12 2
3451 14 2
3452 3 1
3453 3 1
3454 38 1
3455 31 1
3456 24 7
3457 34 1
3458 29 1
3459 24 1
3460 24 9
3461 18 1
3462 21 1
3462 31 7
3463 24 1
3464 5 1
3465 24 2
3466 4 1
3467 8 1
3468 29 1
3469 2 16
3469 3 29
3469 34 44
3470 24 1
3471 3 1
3472 18 42
3472 19 55
3472 20 27
3472 24 1
3473 1 2
3473 2 3
3473 3 4
3473 24 2
3473 31 1
3473 34 7
3474 21 4
3474 22 1
3475 26 3
3476 28 1
3477 28 1
3478 19 3
3478 20 1
3479 1 1
3479 2 8
3479 3 10
3479 34 13
3480 4 1
3480 5 4
3480 34 1
3480 38 1
3481 5 1
3482 2 1
3483 1 1
3483 2 9
3483 3 18
3483 24 23
3483 34 16
3484 26 1
3485 26 1
3486 10 1
3487 29 2
3488 15 1
3488 16 2
3488 17 2
3489 29 19
3489 30 2
3490 3 1
3490 34 2
3491 9 1
3493 29 1
3494 29 1
3495 1 1
3495 2 15
3495 3 17
3495 12 1
3495 34 38
3496 38 1
3497 34 1
3498 28 1
3499 2 1
3499 3 5
3499 34 6
3500 4 3
3500 5 6
3500 38 11
3501 24 10
3502 4 1
3502 5 5
3502 31 3
3502 38 3
3503 28 3
3504 2 2
3504 10 1
3505 29 1
3506 20 1
3507 28 1
3508 2 4
3508 3 4
3508 21 1
3508 24 1
3508 34 8
3509 24 1
3510 7 2
3510 8 1
3511 4 1
3511 5 3
3511 38 2
3512 2 2
3512 3 7
3512 34 20
3513 31 9
3514 15 1
3514 23 1
3514 24 10
3515 24 5
3515 29 1
3516 3 1
3517 31 2
3518 19 1
3519 22 1
3519 29 1
3519 34 1
3520 34 1
3521 7 3
3521 8 2
3522 22 1
3523 34 1
3524 18 5
3524 19 3
3525 29 1
3526 31 1
3527 11 1
3528 12 3
3528 14 1
3529 31 3
3530 7 1
3531 17 1
3532 5 1
3533 10 2
3533 11 1
3533 24 1
3534 31 8
3534 33 1
3535 2 1
3536 24 1
3537 24 3
3538 24 1
3539 29 2
3539 30 2
3540 15 1
3540 24 6
3541 38 2
3542 21 1
3543 5 2
3543 38 3
3544 34 1
3545 15 1
3545 31 2
3546 34 1
3547 2 2
3547 3 11
3547 12 32
3547 14 11
3547 18 1
3547 31 2
3547 34 23
3548 29 1
3549 31 3
3550 4 5
3550 5 13
3550 19 1
3550 38 21
3551 24 4
3552 5 1
3552 7 2
3552 8 1
3552 14 1
3553 3 1
3554 34 1
3555 34 1
3556 14 1
3556 18 1
3556 24 1
3557 2 3
3557 3 17
3557 10 1
3557 34 15
3558 8 1
3558 18 1
3559 15 1
3559 17 1
3560 25 1
3561 10 1
3562 14 1
3562 34 1
3563 38 3
3564 4 1
3565 5 1
3566 1 1
3566 2 16
3566 3 35
3566 10 1
3566 34 39
3567 3 1
3567 29 1
3568 5 1
3569 16 1
3569 31 1
3570 38 1
3571 7 3
3571 8 4
3571 22 4
3572 18 1
3572 19 2
3572 20 1
3573 34 2
3574 3 1
3575 24 1
3576 24 4
3577 15 5
3577 16 5
3577 17 4
3578 14 1
3578 21 1
3578 34 1
3579 29 6
3580 5 1
3581 19 1
3582 1 1
3582 2 14
3582 3 40
3582 34 60
3583 1 1
3583 4 1
3583 10 2
3583 11 1
3583 29 2
3583 38 2
3584 22 1
3585 34 1
3586 10 1
3587 21 2
3588 17 1
3589 12 4
3589 14 2
3589 34 1
3590 8 1
3590 18 1
3590 34 1
3590 38 1
3591 21 1
3592 28 3
3593 2 2
3593 3 15
3593 24 2
3593 26 1
3593 31 3
3593 34 10
3594 2 1
3595 2 1
3595 12 1
3595 14 1
3596 5 1
3597 14 1
3598 12 7
3598 14 2
3599 3 1
3600 2 1
3600 18 1
3601 34 1
3602 34 1
3603 5 6
3603 38 8
3604 5 1
3604 24 10
3605 22 1
3605 29 1
3606 21 2
3606 22 3
3607 2 1
3607 29 1
3608 7 1
3608 8 1
3609 4 1
3609 5 5
3609 12 4
3609 13 1
3609 14 1
3609 38 4
3610 4 2
3610 5 7
3610 21 3
3610 22 3
3610 38 10
3611 12 1
3612 38 1
3613 26 2
3613 29 8
3614 3 1
3615 29 1
3616 22 1
3617 3 1
3618 29 6
3618 30 1
3619 2 1
3619 29 7
3619 30 2
3620 24 1
3621 2 3
3621 3 5
3621 34 7
3622 38 1
3623 34 1
3624 10 1
3624 18 24
3624 19 26
3624 20 15
3625 18 2
3625 19 9
3625 20 3
3625 34 1
3626 7 3
3626 8 2
3627 12 8
3627 14 4
3628 18 1
3628 31 7
3629 8 5
3630 18 3
3630 19 3
3630 20 2
3631 2 1
3631 4 6
3631 5 35
3631 21 17
3631 22 16
3631 29 1
3631 38 37
3632 3 1
3633 3 1
3633 17 1
3634 26 8
3635 31 2
3636 5 1
3636 29 1
3637 9 1
3638 5 1
3639 1 1
3639 2 9
3639 3 17
3639 34 27
3640 4 1
3640 5 4
3640 38 4
3641 3 1
3641 24 1
3642 28 1
3643 10 1
3644 24 2
3645 3 1
3646 38 1
3647 4 3
3647 5 19
3647 38 30
3648 26 1
3649 21 9
3649 22 9
3649 38 1
3650 29 19
3650 30 1
3651 29 1
3652 38 1
3653 21 1
3654 29 5
3654 30 1
3655 2 2
3655 3 1
3655 5 1
3656 31 1
3657 29 26
3658 31 1
3659 28 3
3660 26 1
3661 10 1
3662 18 30
3662 19 30
3662 20 7
3663 38 1
3664 24 1
3665 11 1
3666 18 1
3667 3 1
3668 3 1
3669 20 1
3669 34 1
3670 21 1
3671 19 1
3672 12 1
3672 14 2
3673 26 1
3674 16 2
3674 17 1
3675 9 1
3676 2 21
3676 3 60
3676 34 62
3677 24 2
3677 31 1
3678 21 1
3679 24 12
3680 24 4
3681 17 1
3682 2 1
3683 1 3
3683 2 26
3683 3 47
3683 34 59
3684 2 28
3684 3 37
3684 34 43
3685 34 1
3686 5 1
3687 38 1
3688 12 1
3689 4 11
3689 5 24
3689 14 1
3689 19 1
3689 38 45
3690 12 12
3690 13 1
3690 14 6
3691 17 1
3691 24 1
3692 29 1
3693 24 1
3694 19 1
3695 2 6
3695 3 41
3695 34 45
3696 8 1
3697 3 1
3698 24 18
3699 8 1
3700 8 1
3701 29 5
3701 30 1
3701 34 1
3702 24 1
3703 34 1
3704 2 2
3704 34 3
3705 18 1
3705 24 1
3706 24 1
3707 29 13
3708 3 1
3708 5 1
3709 26 1
3710 3 1
3710 18 9
3710 19 3
3710 20 5
3711 4 1
3711 5 2
3711 38 5
3712 29 1
3713 38 1
3714 2 15
3714 3 18
3714 34 13
3715 4 1
3716 24 16
3717 2 1
3717 3 1
3717 29 3
3717 34 7
3718 31 1
3719 18 1
3720 3 1
3720 12 1
3721 19 1
3723 28 5
3724 20 1
3724 21 1
3725 31 17
3726 34 1
3727 26 2
3728 21 5
3728 22 2
3729 8 1
3730 34 1
3731 29 10
3731 30 1
3732 38 1
3733 28 1
3733 29 2
3734 28 1
3735 2 1
3735 24 2
3736 1 1
3737 38 1
3738 2 8
3738 3 22
3738 21 10
3738 22 9
3738 34 22
3739 2 7
3739 3 6
3739 24 5
3739 34 16
3740 9 7
3740 10 19
3740 11 6
3741 29 2
3741 30 1
3742 5 1
3743 10 2
3744 31 1
3745 38 1
3746 25 1
3746 38 1
3747 12 1
3747 14 3
3748 29 1
3749 5 1
3749 24 1
3750 24 12
3750 34 1
3751 20 1
3752 5 1
3752 21 3
3752 22 2
3753 20 1
3754 14 1
3755 5 1
3755 34 1
3756 24 3
3757 21 1
3758 1 1
3758 2 12
3758 3 11
3758 34 19
3759 22 1
3759 30 1
3760 16 1
3761 2 2
3761 3 13
3761 34 18
3762 18 31
3762 19 49
3762 20 17
3763 15 21
3763 16 14
3763 17 22
3764 2 1
3765 19 1
3766 34 1
3767 18 1
3768 2 3
3768 3 12
3768 34 16
3769 9 11
3769 10 14
3769 11 8
3769 18 5
3769 19 3
3769 20 2
3770 1 1
3770 2 10
3770 3 19
3770 34 28
3771 12 8
3771 14 6
3771 34 1
3772 34 1
3773 38 1
3774 31 1
3775 24 1
3775 38 2
3776 3 1
3776 5 1
3776 19 17
3776 20 4
3776 21 11
3776 22 7
3777 38 1
3778 2 8
3778 3 16
3778 34 18
3779 29 1
3780 28 1
3781 29 1
3782 38 1
3783 34 1
3784 4 6
3784 5 20
3784 38 23
3785 29 5
3785 31 1
3786 29 1
3787 21 5
3787 22 5
3788 15 1
3789 31 2
3790 12 7
3790 14 4
3791 24 26
3792 4 1
3792 5 18
3792 12 1
3792 38 19
3793 24 1
3794 15 5
3794 16 7
3794 17 4
3795 5 1
3796 29 2
3797 12 15
3797 14 9
3798 4 2
3798 5 15
3798 38 12
3799 24 1
3800 29 8
3800 30 2
3801 5 1
3802 2 1
3803 38 1
3804 9 5
3804 10 4
3804 11 4
3805 3 1
3806 3 1
3807 7 1
3808 31 3
3808 34 1
3809 21 1
3810 38 1
3811 29 22
3811 30 2
3812 5 3
3812 28 1
3812 31 1
3812 38 5
3813 3 1
3813 38 1
3814 28 4
3815 12 1
3816 2 1
3817 12 45
3817 14 26
3818 2 1
3818 3 1
3818 29 1
3818 34 6
3819 38 1
3820 2 8
3820 3 8
3820 34 4
3821 34 1
3822 28 5
3823 29 1
3824 12 1
3825 12 1
3826 29 6
3826 30 1
3827 24 1
3828 12 20
3828 14 10
3829 14 1
3830 24 5
3831 18 1
3832 28 11
3832 29 1
3833 26 1
3834 29 12
3835 13 3
3835 14 11
3835 19 34
3835 20 15
3836 34 2
3837 2 1
3838 5 1
3839 38 1
3840 4 3
3840 5 15
3840 38 11
3841 2 1
3842 34 1
3842 38 1
3843 2 1
3844 10 1
3845 22 1
3846 10 1
3846 11 2
3846 38 1
3847 15 2
3847 17 2
3848 2 3
3848 3 5
3848 34 7
3849 18 1
3849 21 30
3849 22 27
3850 4 3
3850 5 10
3850 38 12
3851 24 5
3852 15 5
3852 16 2
3852 17 4
3853 4 2
3853 5 4
3853 38 5
3854 29 1
3855 2 4
3855 3 4
3855 22 1
3855 24 1
3855 29 2
3855 34 6
3856 3 1
3857 7 7
3857 8 12
3858 3 1
3858 9 1
3859 4 4
3859 5 12
3859 38 9
3860 4 2
3860 5 6
3860 38 7
3861 7 1
3862 38 1
3863 8 1
3864 29 10
3865 7 3
3865 8 5
3866 19 1
3866 26 1
3866 29 6
3866 30 1
3867 28 3
3867 31 6
3868 17 1
3869 24 3
3870 21 1
3870 28 6
3871 2 1
3871 3 1
3871 26 1
3871 34 1
3872 5 1
3873 12 3
3873 14 2
3873 34 1
3874 3 6
3874 34 6
3875 34 1
3876 28 1
3877 3 1
3878 28 1
3879 34 1
3880 2 1
3881 21 1
3882 5 3
3882 28 4
3882 38 3
3883 29 1
3884 16 1
3885 26 1
3886 5 1
3886 12 1
3886 24 2
3887 28 1
3888 4 2
3888 5 7
3888 38 10
3889 12 1
3889 15 4
3889 16 8
3889 17 7
3889 22 2
3889 24 1
3890 4 1
3890 7 2
3890 8 1
3890 10 3
3891 2 1
3891 23 1
3891 24 7
3891 29 7
3891 30 1
3891 34 1
3892 24 1
3893 7 4
3893 8 4
3893 12 1
3894 29 6
3895 5 1
3895 9 1
3895 10 1
3895 11 1
3896 5 1
3896 9 1
3896 10 1
3897 38 1
3898 16 1
3899 16 1
3900 38 1
3901 31 2
3902 5 1
3903 29 1
3904 1 1
3904 34 1
3905 28 4
3906 24 1
3907 24 1
3907 28 11
3907 34 1
3908 21 1
3909 15 5
3909 16 1
3909 17 3
3909 21 22
3909 22 26
3910 18 8
3910 19 7
3910 20 1
3910 21 19
3910 22 13
3911 24 11
3912 5 1
3913 3 1
3914 4 1
3915 31 3
3916 18 2
3916 20 2
3917 28 1
3918 34 1
3919 4 1
3919 5 12
3919 34 1
3919 38 7
3920 21 1
3921 3 1
3921 19 1
3921 20 2
3922 2 6
3922 3 22
3922 34 17
3923 15 2
3924 24 1
3924 29 1
3925 31 8
3926 7 1
3927 19 1
3927 38 1
3928 12 1
3928 13 1
3929 31 1
3930 18 22
3930 19 34
3930 20 12
3931 29 1
3932 24 8
3932 26 6
3933 7 1
3933 31 14
3933 34 1
3934 1 2
3934 2 13
3934 3 14
3934 34 23
3935 29 4
3936 19 1
3937 31 1
3938 29 12
3938 30 1
3939 10 1
3939 34 1
3939 38 1
3940 19 1
3941 38 1
3942 21 1
3943 38 1
3944 29 2
3945 7 2
3945 8 3
3946 24 1
3947 4 2
3947 5 1
3947 38 6
3948 3 1
3949 20 1
3949 24 8
3950 21 1
3951 18 6
3951 19 10
3951 20 2
3952 21 4
3953 21 24
3953 22 24
3954 20 1
3955 4 8
3955 5 34
3955 38 38
3956 38 1
3957 3 1
3958 21 1
3959 24 15
3960 19 1
3960 21 1
3960 24 1
3960 31 2
3961 24 3
3962 31 1
3963 34 2
3964 24 9
3965 3 1
3966 14 1
3967 12 1
3968 12 31
3968 13 1
3968 14 8
3968 18 1
3968 19 4
3968 20 1
3969 2 17
3969 3 24
3969 24 1
3969 31 1
3969 34 26
3970 34 1
3971 34 1
3972 21 1
3973 5 1
3974 24 2
3975 18 1
3976 28 1
3977 38 4
3978 31 37
3979 5 1
3980 29 7
3980 38 1
3981 26 6
3982 7 10
3982 8 5
3983 3 1
3984 38 1
3985 12 4
3985 14 2
3985 18 1
3986 2 7
3986 3 9
3986 34 13
3987 24 1
3988 5 1
3988 24 10
3989 24 1
3990 34 1
3991 18 8
3991 19 15
3991 20 7
3992 3 1
3993 23 1
3993 24 1
3994 34 1
3995 5 1
3996 31 1
3997 8 1
3998 24 1
3999 18 4
3999 19 2
3999 20 2
4000 29 3
4001 31 1
4002 29 12
4002 30 3
4003 22 1
4004 17 1
4004 24 1
4004 29 4
4004 31 1
4005 24 2
4006 2 1
4007 11 1
4008 26 3
4009 18 1
4010 14 1
4011 21 1
4012 29 3
4012 34 1
4013 29 1
4014 21 1
4015 3 2
4015 34 1
4016 19 1
4017 4 8
4017 5 48
4017 38 51
4018 12 21
4018 14 11
4019 26 4
4020 26 9
4020 29 6
4021 15 1
4022 5 1
4022 7 19
4022 8 26
4022 9 1
4022 10 2
4022 11 3
4022 28 3
4023 28 6
4024 28 1
4025 4 3
4025 5 24
4025 29 1
4025 38 19
4026 10 1
4027 19 1
4028 4 4
4028 5 12
4028 38 12
4029 18 4
4029 19 5
4029 20 3
4030 9 21
4030 10 52
4030 11 32
4030 34 1
4031 1 1
4031 2 12
4031 3 13
4031 4 1
4031 34 30
4032 24 12
4033 14 1
4034 24 9
4035 38 1
4036 2 8
4036 3 8
4036 29 9
4036 30 1
4036 31 1
4036 34 22
4037 31 4
4038 24 1
4039 19 1
4039 28 6
4039 38 1
4040 15 1
4041 24 16
4042 5 1
4043 34 1
4044 24 17
4045 3 1
4046 2 1
4046 24 21
4047 4 3
4047 5 15
4047 38 27
4048 24 1
4049 2 6
4049 3 21
4049 34 22
4050 5 1
4051 3 1
4052 24 1
4053 3 1
4053 31 7
4053 34 1
4054 18 22
4054 19 24
4054 20 9
4054 38 1
4055 34 1
4056 2 1
4057 7 1
4058 9 7
4058 10 6
4058 11 5
4059 5 15
4059 38 9
4060 9 21
4060 10 42
4060 11 22
4061 31 8
4061 33 1
4062 19 1
4062 20 1
4063 12 16
4063 13 1
4063 14 8
4063 18 28
4063 19 33
4063 20 10
4064 18 1
4065 18 1
4066 3 2
4067 11 1
4068 10 1
4069 21 9
4069 22 6
4070 12 1
4071 2 8
4071 3 11
4071 34 10
4072 18 1
4073 19 1
4074 20 1
4075 24 4
4076 3 1
4077 5 10
4077 38 11
4078 26 3
4079 16 1
4080 22 2
4081 18 9
4081 19 12
4081 20 3
4082 34 1
4083 2 1
4084 5 1
4085 24 1
4086 38 2
4087 38 1
4088 3 1
4088 4 1
4089 17 1
4090 18 1
4090 24 19
4091 28 3
4092 12 1
4092 14 1
4093 5 1
4093 24 8
4094 24 1
4095 19 3
4095 20 1
4096 4 1
4096 5 11
4096 7 9
4096 8 6
4096 38 7
4097 21 2
4097 22 2
4098 21 1
4099 34 1
4100 21 1
4101 24 3
4101 25 1
4101 26 4
4101 29 13
4101 30 1
4102 31 8
4103 24 1
4104 17 1
4104 28 2
4105 28 1
4105 34 1
4106 12 1
4106 29 7
4106 30 1
4107 38 1
4108 5 1
4108 7 12
4108 8 13
4109 21 1
4110 18 1
4111 15 2
4111 21 1
4112 29 12
4113 29 1
4114 9 1
4114 15 2
4114 16 1
4114 17 2
4114 21 4
4114 22 1
4115 4 7
4115 5 55
4115 38 61
4116 2 1
4116 3 4
4116 4 1
4116 5 1
4116 9 1
4116 11 1
4116 12 1
4116 15 2
4116 17 1
4116 18 1
4116 21 1
4116 24 1
4116 26 1
4116 28 1
4116 34 3
4116 38 3
4117 31 8
4118 2 1
4118 3 1
4118 7 1
4119 38 1
4120 7 4
4120 8 7
4121 26 1
4122 22 1
4123 29 1
4124 15 1
4125 15 1
4126 21 18
4126 22 12
4127 19 1
4128 28 1
4129 29 1
4129 30 1
4130 10 1
4131 12 12
4131 13 1
4131 14 10
4132 1 2
4132 2 15
4132 3 14
4132 25 3
4132 26 31
4132 31 22
4132 34 21
4133 28 2
4134 18 7
4134 19 1
4134 20 8
4135 34 1
4136 28 1
4137 5 1
4138 20 1
4139 28 8
4140 31 1
4141 2 1
4142 22 1
4143 29 13
4143 30 1
4144 26 1
4145 12 1
4146 24 2
4147 12 14
4147 14 6
4148 29 1
4149 34 1
4150 17 1
4151 26 1
4152 11 1
4152 24 1
4153 18 1
4153 38 1
4154 28 2
4155 2 32
4155 3 44
4155 24 1
4155 31 2
4155 34 44
4156 19 1
4157 3 1
4158 5 1
4159 10 5
4159 11 4
4160 12 1
4160 31 1
4161 3 1
4161 18 1
4161 38 1
4162 15 1
4163 11 1
4163 24 1
4164 8 1
4165 26 2
4166 31 2
4167 31 1
4168 34 1
4169 3 1
4170 34 1
4171 2 1
4171 10 1
4171 22 1
4172 24 5
4173 9 1
4174 34 1
4175 23 1
4175 24 29
4176 15 2
4176 16 2
4176 17 1
4177 9 1
4177 30 1
4178 24 1
4179 38 1
4180 26 2
4181 2 1
4181 12 1
4182 20 1
4183 20 1
4184 34 1
4185 2 1
4185 3 3
4185 34 2
4185 38 2
4186 4 4
4186 5 11
4186 38 14
4187 34 1
4188 1 3
4188 2 38
4188 3 56
4188 34 76
4189 22 1
4190 31 1
4191 2 1
4192 29 19
4192 30 3
4193 8 1
4193 29 3
4194 2 1
4194 22 1
4195 4 4
4195 5 33
4195 38 35
4196 31 3
4197 24 1
4198 3 1
4198 9 10
4198 10 14
4198 11 12
4199 18 1
4199 19 5
4200 22 1
4200 31 14
4201 19 1
4202 4 4
4202 5 33
4202 38 30
4203 15 7
4203 16 5
4203 17 4
4204 2 9
4204 3 11
4204 8 1
4204 34 6
4205 15 1
4206 5 1
4207 5 1
4207 9 1
4208 24 1
4209 38 1
4210 18 1
4210 21 11
4210 22 20
4211 19 1
4212 38 1
4213 29 39
4213 30 1
4214 29 15
4214 30 3
4215 24 5
4216 2 1
4217 29 11
4218 3 1
4219 28 3
4220 29 10
4221 3 1
4222 2 1
4222 18 1
4222 38 1
4223 10 3
4223 11 1
4224 24 15
4225 29 19
4225 30 3
4226 34 1
4227 24 1
4228 38 1
4229 5 1
4230 2 1
4231 31 5
4232 9 8
4232 10 29
4232 11 24
4233 5 1
4234 11 9
4235 19 1
4235 29 2
4235 34 1
4236 17 1
4237 9 7
4237 10 14
4237 11 8
4238 19 1
4239 28 6
4240 12 1
4241 4 3
4241 5 12
4241 38 26
4242 19 1
4243 5 1
4244 12 1
4245 38 1
4246 22 1
4247 10 1
4248 20 1
4249 24 25
4250 1 1
4250 2 7
4250 3 8
4250 26 3
4250 31 1
4250 34 4
4251 38 1
4252 18 2
4252 19 2
4253 3 1
4254 18 3
4254 19 6
4254 20 1
4255 21 17
4255 22 9
4255 29 1
4256 4 1
4257 3 1
4258 2 4
4258 3 12
4258 34 10
4259 19 1
4260 38 1
4261 5 1
4261 38 1
4262 38 1
4263 21 3
4263 22 2
4264 2 2
4264 3 4
4264 34 1
4265 17 1
4266 29 1
4267 4 1
4267 16 1
4268 10 1
4268 12 12
4268 14 5
4269 29 9
4269 30 2
4270 7 1
4271 4 3
4271 5 14
4271 38 21
4272 13 1
4272 18 3
4272 19 3
4273 31 13
4274 30 1
4274 31 43
4274 34 1
4275 12 1
4275 29 1
4276 18 1
4277 24 2
4278 17 1
4279 4 1
4279 5 12
4279 38 10
4280 31 2
4281 19 1
4281 24 1
4282 7 1
4283 34 1
4284 16 1
4285 38 1
4286 5 1
4286 34 1
4287 3 1
4288 29 1
4289 21 4
4289 22 4
4290 10 1
4291 18 1
4291 20 1
4291 29 1
4291 31 25
4291 34 1
4292 2 11
4292 3 19
4292 26 15
4292 34 17
4293 18 1
4294 19 1
4295 29 23
4295 30 2
4296 4 1
4296 12 1
4296 34 1
4297 31 1
4298 18 1
4298 29 7
4299 24 10
4300 24 1
4301 28 4
4302 22 1
4303 24 1
4304 11 1
4305 9 15
4305 10 41
4305 11 21
4306 19 1
4307 8 1
4308 38 1
4309 29 1
4310 12 2
4310 24 1
4311 34 1
4312 5 1
4312 16 1
4313 8 1
4313 12 53
4313 13 2
4313 14 25
4313 24 1
4314 12 1
4315 28 3
4316 31 2
4317 5 6
4317 21 1
4317 38 11
4318 11 1
4319 15 1
4319 17 1
4320 18 1
4321 12 1
4321 24 4
4321 34 1
4322 24 2
4323 34 1
4324 24 1
4325 24 1
4325 31 2
4326 15 1
4327 38 1
4328 29 1
4329 19 1
4330 4 1
4330 38 1
4331 4 4
4331 5 19
4331 14 1
4331 38 31
4332 34 1
4333 12 5
4333 14 4
4333 34 1
4335 34 1
4336 21 2
4337 4 4
4337 5 21
4337 15 27
4337 16 9
4337 17 18
4337 29 1
4337 38 25
4338 26 6
4339 34 1
4340 31 5
4341 19 1
4342 19 1
4343 24 4
4344 24 1
4345 38 1
4346 21 1
4347 24 7
4348 20 1
4349 11 2
4349 14 1
4350 9 1
4351 24 1
4352 29 1
4353 19 1
4353 38 1
4354 18 6
4354 19 12
4354 20 4
4355 24 1
4356 24 1
4357 29 1
4358 31 1
4359 3 1
4360 16 1
4361 24 1
4361 26 7
4362 12 1
4363 34 2
4364 18 1
4365 21 1
4366 26 1
4366 34 1
4367 29 1
4368 3 1
4369 22 1
4370 7 4
4370 8 8
4371 2 1
4371 10 1
4372 28 5
4372 38 1
4373 24 6
4374 21 16
4374 22 4
4375 19 1
4376 5 1
4377 22 1
4377 38 1
4378 3 1
4378 18 33
4378 19 32
4378 20 8
4378 22 1
4379 5 1
4379 34 1
4380 10 1
4381 10 1
4382 28 3
4383 30 1
4384 19 1
4385 11 1
4386 31 1
4387 3 1
4388 31 1
4389 10 1
4390 4 2
4390 5 5
4390 38 16
4391 12 1
4392 5 1
4393 15 19
4393 16 7
4393 17 10
4394 24 1
4395 18 1
4396 24 1
4397 34 1
4397 38 1
4398 2 21
4398 3 35
4398 34 45
4399 22 1
4400 1 2
4400 2 34
4400 3 32
4400 34 47
4401 18 1
4402 18 1
4403 3 2
4403 34 1
4404 18 20
4404 19 8
4404 20 4
4405 21 1
4406 15 1
4407 12 1
4408 17 1
4409 9 1
4410 14 1
4410 29 15
4410 30 2
4411 7 12
4411 8 15
4412 31 3
4413 1 1
4413 2 5
4413 3 18
4413 34 27
4414 9 1
4414 11 3
4415 1 1
4415 2 2
4415 3 3
4415 34 3
4416 22 2
4417 1 1
4417 2 7
4417 3 17
4417 34 29
4418 29 9
4418 30 1
4419 4 3
4419 5 18
4419 38 28
4420 2 1
4421 38 1
4423 21 1
4423 29 1
4424 5 1
4425 38 1
4426 1 1
4426 2 4
4426 3 4
4426 5 1
4426 21 1
4426 24 1
4426 34 4
4427 4 2
4427 5 12
4427 38 15
4428 24 1
4429 29 1
4430 11 1
4431 2 1
4432 24 2
4432 38 1
4433 38 1
4434 9 7
4434 10 15
4434 11 10
4435 11 1
4436 19 1
4436 20 1
4437 5 1
4438 19 1
4439 9 23
4439 10 31
4439 11 27
4440 26 3
4440 29 3
4441 2 1
4442 21 1
4442 22 1
4443 5 1
4444 31 1
4445 4 1
4445 5 1
4445 38 8
4446 31 12
4447 18 1
4448 26 1
4449 28 10
4449 29 9
4450 29 18
4451 34 1
4452 1 1
4452 3 2
4452 29 1
4452 34 4
4453 15 68
4453 16 24
4453 17 54
4454 5 1
4455 8 1
4455 24 12
4455 38 1
4456 17 1
4457 12 1
4457 31 11
4458 21 1
4458 29 18
4459 24 1
4460 5 1
4460 14 1
4460 24 14
4461 15 1
4462 7 16
4462 8 34
4462 19 1
4463 25 1
4463 26 8
4464 1 1
4464 2 4
4464 3 6
4464 34 9
4465 24 3
4466 24 1
4467 18 2
4468 12 16
4468 13 1
4468 14 10
4469 15 1
4470 15 31
4470 16 17
4470 17 30
4471 3 1
4472 3 1
4472 5 8
4472 18 1
4472 38 11
4473 15 11
4473 16 6
4473 17 4
4474 5 1
4475 7 1
4475 8 2
4476 10 1
4477 24 3
4478 3 1
4478 29 1
4479 3 1
4480 21 1
4481 12 1
4482 24 2
4483 8 1
4483 24 10
4484 2 1
4485 21 1
4486 9 12
4486 10 27
4486 11 15
4487 34 1
4488 12 1
4489 5 1
4490 2 3
4490 3 6
4490 29 1
4490 34 3
4491 22 1
4492 5 1
4492 12 1
4493 31 17
4494 28 1
4495 2 3
4495 3 4
4495 29 5
4495 31 1
4495 34 4
4496 4 1
4497 19 1
4497 21 20
4497 22 19
4498 3 1
4499 34 1
4500 3 1
4500 29 1
4501 8 2
4502 2 2
4502 3 8
4502 34 6
4503 2 15
4503 3 15
4503 29 1
4503 34 15
4504 38 1
4505 22 1
4506 3 1
4507 8 1
4507 26 1
4508 11 1
4509 2 6
4509 3 9
4509 34 6
4510 24 1
4511 24 1
4512 34 1
4513 11 1
4514 12 1
4515 2 1
4515 3 3
4515 34 4
4516 24 2
4517 21 1
4517 22 1
4518 21 11
4518 22 3
4519 7 2
4519 8 3
4520 19 1
4521 24 5
4522 5 1
4523 14 1
4524 5 1
4525 25 1
4525 26 2
4526 4 1
4527 31 16
4527 38 1
4528 7 7
4528 8 7
4529 19 1
4529 24 2
4529 25 1
4529 26 4
4530 4 4
4530 5 13
4530 38 31
4531 2 1
4532 18 1
4532 31 1
4532 38 1
4533 5 7
4533 30 1
4533 38 3
4534 2 1
4534 3 1
4534 24 3
4534 34 2
4535 19 1
4536 12 1
4537 29 10
4538 1 1
4538 2 4
4538 3 11
4538 29 2
4538 30 1
4538 34 6
4539 24 1
4540 29 1
4541 24 1
4542 5 1
4543 15 1
4544 19 1
4545 18 1
4546 18 9
4546 19 8
4546 20 4
4547 17 1
4548 2 2
4548 16 1
4548 23 1
4548 24 5
4548 34 2
4549 34 1
4550 19 1
4551 5 1
4552 5 9
4552 38 3
4553 34 1
4554 31 1
4555 3 1
4556 29 4
4557 24 1
4557 29 7
4558 29 13
4559 29 1
4560 3 1
4561 24 1
4562 24 1
4563 14 3
4564 2 1
4565 3 1
4566 2 5
4566 3 3
4566 34 9
4567 2 1
4567 3 2
4568 25 1
4568 26 3
4569 9 9
4569 10 15
4569 11 8
4570 29 13
4570 30 1
4571 29 11
4571 30 2
4572 20 1
4572 31 1
4573 2 12
4573 3 15
4573 34 13
4574 26 1
4575 29 2
4575 38 1
4576 9 1
4577 24 20
4578 21 1
4579 24 10
4579 31 7
4580 28 8
4580 29 1
4581 12 5
4582 28 2
4583 12 1
4584 10 4
4584 11 2
4585 3 1
4586 7 14
4586 8 20
4586 21 20
4586 22 16
4587 38 1
4588 29 8
4588 30 1
4589 19 1
4590 5 1
4590 28 2
4590 38 3
4591 29 27
4591 30 1
4592 2 1
4593 4 1
4594 18 1
4594 19 1
4595 2 1
4596 19 1
4597 28 1
4598 19 1
4599 5 1
4600 29 1
4601 2 9
4601 3 36
4601 17 1
4601 34 30
4602 29 10
4602 30 1
4603 4 3
4603 5 3
4603 9 2
4603 10 4
4603 11 2
4603 38 2
4604 25 1
4604 26 6
4604 29 1
4605 19 1
4606 7 1
4607 3 1
4608 1 1
4608 2 5
4608 3 11
4608 18 1
4608 34 5
4608 38 1
4609 12 1
4610 8 1
4610 12 1
4610 14 1
4610 29 1
4610 34 1
4611 15 1
4611 38 1
4612 5 1
4612 12 11
4612 14 2
4613 14 1
4614 1 1
4614 2 2
4614 3 4
4614 34 7
4615 4 1
4615 5 4
4615 38 14
4616 29 6
4617 34 1
4618 9 1
4618 24 2
4618 28 9
4619 18 1
4619 29 11
4620 5 1
4621 19 1
4622 18 1
4623 2 6
4623 3 14
4623 34 17
4624 3 1
4625 9 8
4625 10 7
4625 11 8
4626 15 11
4626 16 9
4626 17 4
4626 20 1
4627 19 1
4627 29 4
4627 30 1
4628 2 12
4628 3 17
4628 9 1
4628 34 39
4629 2 1
4629 29 1
4630 34 1
4631 24 8
4632 2 1
4632 24 1
4633 3 1
4634 4 1
4635 29 2
4635 30 1
4636 2 1
4637 3 1
4638 31 1
4639 31 5
4640 3 1
4641 21 5
4641 22 2
4641 34 1
4642 2 1
4642 18 1
4643 31 1
4644 2 7
4644 3 8
4644 29 5
4644 34 7
4645 34 1
4646 8 1
4646 30 1
4647 34 1
4648 19 1
4649 38 1
4650 2 8
4650 3 19
4650 34 16
4651 21 3
4651 22 2
4652 18 1
4653 2 1
4653 3 4
4653 8 1
4653 34 1
4654 3 1
4654 12 1
4654 29 1
4655 4 2
4655 5 20
4655 14 1
4655 38 22
4656 2 1
4656 5 11
4656 21 8
4656 22 3
4656 38 11
4657 15 1
4658 3 1
4659 3 1
4659 10 1
4659 34 1
4660 34 1
4661 24 6
4662 38 1
4663 38 1
4664 19 1
4664 34 1
4665 3 1
4665 8 1
4665 26 3
4666 2 13
4666 3 19
4666 34 23
4667 1 1
4668 24 13
4669 12 1
4669 31 1
4670 34 1
4671 15 1
4672 29 2
4673 31 5
4674 2 1
4675 26 4
4676 24 6
4677 34 2
4678 15 1
4679 21 11
4679 22 5
4680 3 1
4681 3 1
4681 4 3
4681 5 14
4681 38 13
4682 2 7
4682 3 7
4682 34 6
4683 28 1
4684 34 1
4685 28 2
4686 31 1
4687 5 1
4688 19 1
4689 16 1
4690 2 1
4691 3 1
4692 15 5
4692 16 1
4693 24 8
4694 26 1
4695 30 1
4696 12 1
4696 28 3
4697 7 1
4698 31 5
4699 31 1
4700 11 1
4701 1 1
4701 12 1
4702 21 2
4703 38 1
4704 8 1
4705 5 1
4706 29 8
4706 30 1
4707 24 1
4708 16 1
4708 17 2
4709 29 15
4710 2 1
4711 15 1
4712 2 1
4713 26 1
4714 3 1
4715 31 1
4716 9 16
4716 10 29
4716 11 15
4717 15 1
4718 9 10
4718 10 24
4718 11 12
4719 11 1
4720 15 1
4720 24 3
4721 5 1
4721 31 23
4722 29 1
4723 9 3
4723 10 11
4723 11 5
4724 31 1
4725 9 2
4725 10 1
4725 12 2
4726 1 1
4726 2 7
4726 3 10
4726 25 1
4726 26 2
4726 34 14
4727 38 1
4728 24 8
4729 5 1
4729 17 1
4730 4 1
4730 5 8
4730 38 2
4731 34 1
4732 31 1
4733 26 5
4733 34 1
4734 2 6
4734 3 9
4734 34 7
4735 3 1
4736 24 1
4737 5 1
4738 7 5
4738 8 7
4738 31 8
4738 38 1
4739 2 1
4739 15 1
4739 16 1
4739 17 3
4740 12 4
4740 13 1
4740 14 6
4741 24 1
4742 18 13
4742 19 27
4742 20 7
4743 3 1
4743 5 4
4743 38 8
4744 5 2
4744 38 4
4745 21 14
4745 22 19
4746 3 1
4747 19 1
4748 21 6
4748 22 3
4748 31 1
4749 3 2
4750 29 4
4750 30 1
4751 3 1
4752 8 1
4753 29 4
4754 2 1
4755 29 4
4755 34 1
4756 1 1
4756 2 2
4756 3 4
4756 18 1
4756 26 2
4756 34 1
4757 11 1
4757 22 1
4757 30 1
4758 24 20
4758 28 9
4759 9 1
4760 26 1
4761 31 1
4762 19 1
4763 4 2
4763 5 8
4763 12 1
4763 38 16
4764 38 1
4765 29 9
4765 30 1
4766 7 1
4766 15 20
4766 16 10
4766 17 10
4767 10 1
4767 31 2
4767 34 1
4768 2 1
4768 3 2
4768 5 1
4768 22 1
4768 24 1
4768 38 1
4769 21 1
4770 5 1
4771 12 4
4771 14 3
4771 15 1
4772 18 20
4772 19 14
4772 20 8
4773 2 2
4773 3 3
4773 34 2
4773 38 1
4774 24 1
4775 19 2
4775 20 1
4776 15 1
4777 7 1
4778 18 1
4779 16 1
4780 38 1
4781 7 1
4782 18 1
4782 19 1
4782 20 1
4782 38 1
4783 19 1
4784 12 1
4785 31 1
4786 18 1
4786 19 2
4786 20 3
4787 7 1
4788 29 6
4788 30 2
4789 7 2
4789 8 1
4790 3 1
4790 23 1
4790 24 24
4791 3 1
4792 29 1
4793 4 1
4793 24 27
4794 9 2
4794 11 1
4795 24 1
4796 9 4
4796 10 5
4796 11 10
4797 20 1
4798 24 4
4799 9 10
4799 10 12
4799 11 15
4800 5 1
4801 5 1
4802 12 16
4802 13 1
4802 14 12
4803 18 1
4804 34 1
4805 24 19
4806 7 1
4806 24 1
4807 34 1
4808 24 10
4809 24 1
4810 38 1
4811 9 1
4812 3 1
4813 15 1
4813 17 3
4814 3 1
4815 3 2
4815 21 12
4815 22 5
4815 24 1
4816 24 1
4817 24 1
4818 29 1
4819 3 1
4819 18 1
4820 24 6
4821 23 1
4821 24 5
4822 21 1
4822 31 3
4823 15 1
4824 3 1
4824 28 4
4825 22 1
4826 5 1
4826 15 1
4827 38 1
4828 5 13
4828 38 12
4829 5 4
4829 38 5
4830 11 1
4831 38 1
4832 21 1
4833 3 1
4834 2 1
4835 5 1
4836 21 1
4837 2 1
4838 29 1
4839 1 1
4839 2 15
4839 3 33
4839 34 32
4840 7 4
4840 8 5
4840 21 1
4841 24 1
4842 9 3
4842 10 4
4843 2 1
4843 9 7
4843 10 14
4843 11 10
4844 10 1
4844 12 1
4844 34 1
4845 15 1
4846 12 1
4847 2 1
4848 9 1
4848 28 2
4849 5 1
4850 14 1
4851 31 1
4852 29 7
4853 21 1
4853 24 1
4854 2 1
4854 4 1
4854 5 7
4854 38 7
4855 24 1
4856 5 1
4857 19 1
4857 20 1
4858 19 1
4859 19 1
4860 21 1
4861 14 1
4862 8 1
4863 12 1
4863 18 1
4863 19 1
4863 20 1
4864 3 1
4865 34 1
4866 24 16
4866 31 14
4867 24 1
4867 26 7
4868 21 1
4868 22 1
4869 1 1
4869 2 22
4869 3 40
4869 34 30
4870 28 3
4871 24 1
4872 10 1
4873 3 1
4874 5 2
4874 24 2
4874 29 1
4874 30 1
4875 28 4
4876 3 1
4876 24 12
4876 31 1
4877 8 1
4878 3 1
4879 24 1
4880 34 1
4881 24 1
4882 21 1
4883 29 1
4884 21 1
4885 28 1
4886 15 4
4886 16 1
4886 17 5
4887 3 1
4887 12 1
4888 21 20
4888 22 9
4889 11 1
4890 21 1
4890 29 3
4891 7 1
4891 31 5
4892 38 1
4893 38 1
4894 2 15
4894 3 24
4894 16 1
4894 24 1
4894 34 24
4895 24 8
4896 24 1
4897 3 1
4898 25 1
4899 3 1
4899 5 1
4899 29 23
4899 30 1
4900 38 1
4901 12 1
4902 12 1
4903 24 1
4904 38 1
4905 29 4
4906 2 6
4906 3 13
4906 10 1
4906 34 14
4907 18 2
4907 26 1
4907 29 2
4908 38 1
4909 2 1
4909 24 14
4909 38 1
4910 8 1
4911 17 1
4912 29 3
4913 2 1
4913 19 1
4913 24 1
4913 29 45
4913 30 1
4913 38 1
4914 5 5
4914 38 6
4915 34 1
4916 2 1
4917 16 1
4918 24 1
4919 3 1
4919 17 1
4920 9 4
4920 10 6
4920 11 3
4921 29 1
4921 31 1
4922 19 1
4922 24 5
4922 38 1
4923 2 1
4924 18 1
4925 12 1
4926 22 1
4927 12 28
4927 14 18
4928 7 1
4928 8 2
4928 19 1
4928 31 1
4929 31 16
4930 17 1
4930 21 16
4930 22 10
4931 38 1
4932 24 1
4933 9 9
4933 10 13
4933 11 9
4933 20 1
4934 29 4
4935 18 1
4936 2 1
4936 7 15
4936 8 17
4937 5 1
4937 38 1
4938 29 1
4939 18 1
4940 31 1
4941 3 1
4942 38 1
4943 15 4
4943 16 4
4943 17 1
4944 21 8
4944 22 6
4945 14 2
4946 18 1
4947 17 1
4948 10 1
4949 20 1
4950 38 1
4951 19 1
4952 5 1
4952 29 6
4953 29 1
4954 5 1
4954 24 12
4955 29 1
4955 30 1
4956 21 1
4957 29 10
4957 30 3
4958 4 1
4958 5 11
4958 38 9
4959 3 1
4960 34 2
4961 21 1
4962 24 1
4963 3 2
4963 31 4
4963 34 5
4964 20 1
4964 24 1
4965 9 1
4966 17 1
4967 2 9
4967 3 21
4967 34 21
4968 3 1
4969 1 1
4969 2 3
4969 3 6
4969 34 5
4970 26 5
4971 22 1
4972 2 1
4973 38 1
4974 8 3
4975 28 2
4976 26 1
4977 31 8
4978 2 1
4978 3 1
4978 9 1
4978 10 2
4978 19 3
4978 20 2
4978 21 13
4978 22 25
4978 24 1
4979 34 2
4980 29 6
4981 4 3
4981 5 28
4981 28 1
4981 29 19
4981 31 1
4981 38 35
4982 24 21
4983 4 3
4983 5 19
4983 38 17
4984 31 3
4985 2 1
4985 3 5
4985 29 1
4985 34 4
4986 15 5
4986 16 5
4986 17 2
4987 18 2
4987 19 3
4987 20 2
4988 15 31
4988 16 11
4988 17 19
4989 24 4
4990 3 1
4991 3 1
4991 31 5
4992 21 1
4993 28 1
4994 2 1
4995 19 1
4995 24 10
4996 5 1
4997 2 9
4997 3 20
4997 34 21
4998 34 1
4999 34 1
5000 14 1
5001 3 1
5002 5 1
5003 9 1
5004 18 1
5004 31 12
5004 32 1
5005 24 1
5006 31 5
5007 29 1
5007 30 2
5008 24 19
5009 8 1
5010 24 1
5010 29 2
5011 12 1
5012 29 1
5013 18 1
5014 3 1
5015 5 1
5015 17 2
5016 7 1
5016 18 1
5016 19 3
5017 3 1
5017 28 10
5018 3 1
5018 7 5
5018 8 1
5019 3 1
5020 2 5
5020 3 11
5020 34 9
5021 27 1
5021 28 9
5022 1 1
5022 2 15
5022 3 17
5022 34 12
5023 3 2
5023 34 1
5024 21 1
5025 8 1
5025 38 1
5026 24 11
5027 5 1
5027 24 3
5027 38 1
5028 34 1
5029 4 1
5029 9 1
5029 10 1
5029 15 1
5029 17 1
5029 21 1
5029 25 2
5029 31 1
5029 34 3
5029 38 1
5030 20 1
5031 5 1
5032 4 6
5032 5 33
5032 9 1
5032 18 1
5032 38 28
5033 31 1
5034 28 16
5035 31 10
5036 2 1
5037 34 1
5038 12 3
5038 14 2
5038 18 7
5038 19 9
5038 20 3
5039 38 1
5040 7 1
5041 38 1
5042 20 1
5043 15 1
5043 21 2
5044 31 1
5045 4 10
5045 5 36
5045 38 37
5046 18 3
5046 19 4
5046 20 2
5047 11 3
5048 14 3
5049 5 1
5050 19 1
5051 18 9
5051 19 15
5051 20 8
5052 38 1
5053 28 1
5053 31 1
5054 5 1
5055 28 1
5056 3 1
5057 19 1
5057 21 8
5057 22 7
5058 34 1
5059 9 2
5059 29 2
5060 2 1
5060 23 1
5060 24 8
5060 29 1
5061 29 2
5061 30 1
5062 26 5
5063 12 1
5063 29 1
5063 31 2
5063 34 1
5063 38 1
5064 19 1
5065 19 1
5065 29 1
5066 24 1
5066 26 1
5067 21 3
5067 24 1
5068 5 1
5068 38 3
5069 10 1
5070 31 1
5071 17 1
5072 3 1
5073 31 1
5074 11 1
5075 4 1
5075 5 9
5075 16 1
5075 34 1
5075 38 9
5076 11 1
5077 24 8
5078 31 2
5079 12 1
5080 34 1
5081 5 2
5082 38 1
5083 4 1
5083 5 4
5083 19 1
5083 38 4
5084 11 1
5085 16 1
5086 34 1
5087 2 8
5087 3 25
5087 26 2
5087 34 28
5088 14 1
5089 18 1
5090 18 22
5090 19 31
5090 20 11
5091 4 1
5091 5 6
5091 38 3
5092 38 1
5093 2 2
5093 3 1
5093 34 1
5094 21 1
5095 3 1
5095 17 1
5095 21 10
5095 22 16
5096 20 1
5097 2 1
5097 3 1
5098 24 1
5099 31 4
5100 24 10
5101 24 1
5102 24 8
5102 38 1
5103 14 1
5104 24 2
5105 9 1
5105 29 1
5106 2 1
5106 3 1
5106 4 11
5106 5 62
5106 38 72
5107 38 1
5108 20 1
5109 3 1
5109 9 1
5110 22 1
5111 9 5
5111 10 3
5111 11 3
5111 21 2
5111 38 1
5112 11 25
5112 24 1
5113 26 1
5114 4 1
5114 38 1
5115 12 1
5115 24 1
5116 24 1
5117 5 5
5117 12 3
5117 13 1
5117 14 1
5117 38 4
5118 14 1
5119 29 1
5120 12 1
5121 24 10
5122 1 1
5122 2 25
5122 3 43
5122 34 45
5123 21 3
5123 22 5
5124 34 1
5125 3 1
5125 24 1
5126 3 1
5127 29 1
5128 18 1
5129 24 1
5130 31 12
5131 12 1
5132 14 1
5132 22 1
5132 24 22
5133 11 1
5134 24 1
5135 10 1
5135 19 1
5136 3 1
5136 31 1
5137 21 1
5138 2 1
5138 3 1
5138 38 1
5139 34 1
5140 19 1
5141 12 1
5141 28 5
5142 11 1
5143 24 1
5144 20 1
5144 28 2
5145 19 1
5145 22 1
5145 34 1
5146 28 2
5147 5 1
5148 31 3
5149 2 8
5149 3 23
5149 34 24
5150 2 1
5151 28 1
5152 7 4
5152 8 7
5152 18 1
5153 25 1
5153 26 11
5154 34 1
5155 5 2
5155 7 1
5155 38 6
5156 8 1
5157 29 10
5157 30 2
5158 29 1
5159 2 1
5160 5 1
5160 18 1
5160 29 4
5161 24 2
5162 24 1
5163 28 1
5164 17 1
5165 38 2
5166 31 1
5166 34 1
5167 2 1
5167 3 2
5167 19 1
5167 38 1
5168 22 1
5169 31 8
5170 16 1
5170 34 1
5170 38 1
5171 3 1
5172 31 1
5173 31 1
5174 29 1
5175 19 1
5176 2 17
5176 3 21
5176 34 27
5177 2 1
5177 9 3
5177 10 4
5177 11 2
5178 24 1
5179 34 1
5180 21 15
5180 22 9
5180 29 1
5181 38 1
5182 34 1
5183 18 17
5183 19 27
5183 20 17
5184 21 1
5185 8 1
5186 8 1
5186 29 6
5186 30 2
5187 34 1
5188 31 2
5189 18 1
5190 19 1
5191 29 13
5191 30 3
5192 2 1
5193 24 1
5194 1 1
5194 2 30
5194 3 35
5194 34 46
5194 38 2
5195 21 15
5195 22 22
5195 29 1
5196 2 1
5197 3 1
5197 34 1
5198 16 1
5199 4 1
5199 12 11
5199 13 1
5199 14 5
5199 34 1
5200 38 1
5201 20 1
5202 1 1
5202 2 7
5202 3 14
5202 4 3
5202 5 4
5202 34 11
5202 38 5
5203 28 2
5204 18 1
5204 29 4
5205 24 1
5206 24 1
5207 3 1
5208 10 1
5208 21 1
5209 5 1
5210 17 1
5211 38 1
5212 34 1
5213 1 1
5213 2 35
5213 3 34
5213 34 33
5214 2 1
5215 2 6
5215 3 7
5215 34 6
5216 4 2
5216 5 10
5216 38 7
5217 12 23
5217 14 14
5218 17 1
5218 21 15
5218 22 15
5219 7 1
5220 12 1
5221 2 8
5221 3 16
5221 34 14
5222 5 1
5223 19 1
5223 29 1
5224 9 1
5224 10 11
5224 11 4
5225 28 1
5226 5 6
5226 38 8
5227 5 6
5227 19 1
5227 29 2
5227 38 10
5228 20 1
5229 3 1
5229 19 4
5229 21 2
5229 22 1
5230 28 1
5231 5 1
5232 15 1
5233 10 1
5234 3 1
5234 7 1
5234 10 1
5234 21 1
5234 34 2
5234 38 1
5235 29 21
5235 30 2
5236 9 2
5236 10 4
5236 11 3
5237 29 1
5238 18 10
5238 19 8
5238 20 11
5239 3 1
5240 5 1
5240 38 1
5241 26 4
5242 3 1
5242 10 1
5243 19 1
5244 24 15
5245 7 1
5246 29 3
5247 28 2
5247 38 1
5248 26 1
5249 19 1
5250 31 1
5251 28 1
5252 4 1
5253 5 1
5253 15 1
5254 4 1
5255 9 9
5255 10 24
5255 11 10
5256 3 1
5257 29 18
5257 30 3
5258 10 5
5258 11 2
5259 24 1
5259 29 1
5260 2 1
5260 5 1
5260 31 4
5261 21 20
5261 22 16
5262 3 1
5263 24 14
5264 34 1
5265 29 7
5266 38 1
5267 5 1
5267 29 12
5267 30 2
5268 38 1
5269 24 1
5270 19 1
5271 12 2
5271 18 10
5271 19 27
5271 20 9
5272 34 1
5273 26 2
5273 31 1
5274 7 10
5274 8 10
5275 28 3
5276 34 1
5277 28 4
5277 31 1
5278 19 1
5279 7 1
5279 18 3
5279 19 9
5279 20 2
5280 2 3
5280 3 20
5280 29 1
5280 34 27
5281 29 9
5282 34 1
5283 18 15
5283 19 10
5283 20 3
5284 24 15
5285 18 1
5286 34 1
5287 4 1
5287 5 3
5287 38 6
5288 19 1
5289 5 1
5290 15 25
5290 16 7
5290 17 16
5291 4 1
5292 1 1
5292 2 16
5292 3 19
5292 31 4
5292 34 18
5293 9 21
5293 10 37
5293 11 20
5294 28 1
5295 34 1
5296 10 1
5297 10 1
5298 11 1
5298 18 3
5298 19 2
5298 20 1
5298 29 9
5298 30 1
5299 3 1
5300 22 1
5300 24 1
5301 7 1
5302 2 9
5302 3 9
5302 24 17
5302 29 1
5302 34 7
5303 5 1
5304 24 1
5304 29 8
5305 26 1
5306 20 1
5307 24 4
5308 4 1
5308 38 3
5309 2 1
5309 21 2
5309 22 3
5309 34 1
5310 34 1
5311 17 1
5312 30 1
5313 22 1
5313 29 1
5313 30 1
5314 5 1
5314 21 2
5314 22 1
5315 4 3
5315 8 1
5315 19 1
5315 38 2
5316 19 1
5317 19 2
5317 20 1
5318 18 1
5318 34 1
5319 5 1
5319 23 1
5319 24 14
5320 18 13
5320 19 16
5320 20 3
5321 7 1
5322 15 5
5322 16 6
5322 17 3
5323 2 1
5324 9 1
5325 29 1
5326 18 1
5327 24 1
5328 12 1
5328 19 2
5328 21 1
5329 34 1
5330 2 1
5331 4 3
5331 5 16
5331 38 24
5332 12 1
5332 24 12
5333 22 1
5334 28 4
5335 3 1
5336 3 1
5336 21 26
5336 22 18
5337 2 1
5337 31 1
5338 7 31
5338 8 20
5339 19 1
5340 29 5
5341 5 1
5341 38 2
5342 26 1
5343 3 1
5343 21 14
5343 22 20
5344 8 1
5345 15 1
5346 10 1
5347 29 1
5348 31 1
5349 21 17
5349 22 16
5350 7 1
5350 8 1
5351 21 14
5351 22 16
5352 38 1
5353 24 3
5353 28 1
5353 29 4
5354 29 5
5354 30 1
5354 34 1
5355 31 5
5356 1 1
5356 2 10
5356 3 30
5356 34 21
5357 24 1
5358 5 1
5358 24 7
5359 12 5
5359 14 4
5360 29 19
5360 30 1
5361 20 1
5361 24 1
5361 28 1
5362 29 1
5363 3 3
5363 34 6
5364 5 1
5365 14 1
5366 34 1
5367 15 9
5367 16 3
5367 17 4
5368 34 1
5369 2 1
5370 21 1
5371 1 2
5371 2 5
5371 3 19
5371 4 1
5371 5 9
5371 11 1
5371 15 1
5371 29 1
5371 30 1
5371 34 16
5371 38 10
5372 29 7
5372 30 1
5373 5 1
5373 15 2
5373 16 2
5373 38 1
5374 29 4
5374 30 1
5375 3 1
5376 4 1
5377 29 13
5377 30 1
5378 5 1
5379 31 1
5380 29 18
5381 5 1
5382 21 1
5383 10 2
5383 11 2
5384 34 1
5385 12 1
5386 34 1
5387 2 1
5388 31 1
5389 3 1
5390 4 8
5390 5 37
5390 38 44
5391 15 1
5392 5 1
5393 28 2
5394 24 1
5395 5 1
5396 5 1
5397 2 15
5397 3 26
5397 29 1
5397 34 25
5398 38 1
5399 12 16
5399 13 1
5399 14 12
5399 18 14
5399 19 26
5399 20 15
5400 29 9
5400 30 1
5400 34 1
5401 29 2
5402 18 1
5403 24 1
5404 21 1
5405 10 2
5405 31 11
5406 3 1
5407 3 1
5408 24 1
5409 17 1
5410 28 1
5411 29 1
5412 9 7
5412 10 35
5412 11 15
5413 15 1
5414 23 1
5414 24 9
5415 10 1
5416 2 1
5416 24 2
5416 38 1
5417 18 1
5417 19 2
5417 20 1
5417 24 1
5418 28 1
5419 18 1
5419 19 1
5420 19 1
5421 17 1
5422 29 1
5423 2 5
5423 3 5
5423 34 10
5424 28 1
5426 2 1
5426 3 5
5426 26 1
5426 31 14
5426 34 5
5427 22 1
5428 12 1
5429 21 1
5430 18 4
5430 19 11
5430 20 4
5431 14 1
5431 15 1
5431 34 1
5432 12 6
5432 14 9
5433 22 1
5434 12 26
5434 14 12
5435 24 1
5436 18 19
5436 19 31
5436 20 9
5436 34 1
5437 34 1
5438 3 1
5438 24 1
5438 34 1
5439 34 1
5440 21 2
5441 3 1
5441 28 14
5442 34 1
5443 12 1
5444 29 1
5445 12 1
5445 29 3
5446 24 18
5447 29 20
5447 30 3
5448 17 1
5449 20 1
5450 21 7
5450 22 5
5450 38 1
5451 9 1
5451 24 27
5452 24 7
5453 15 26
5453 16 7
5453 17 22
5453 34 1
5454 3 1
5455 34 1
5456 17 1
5457 29 1
5458 31 2
5459 3 1
5460 24 3
5461 8 1
5462 3 1
5463 5 2
5464 21 1
5465 2 1
5466 2 1
5466 34 1
5467 12 12
5467 14 9
5467 18 2
5467 19 2
5467 24 1
5468 24 2
5469 26 1
5470 31 1
5471 38 1
5472 2 20
5472 3 33
5472 34 47
5473 30 1
5474 18 1
5474 23 1
5474 24 23
5475 29 2
5476 8 1
5477 12 3
5477 13 1
5477 14 3
5477 18 1
5477 19 1
5477 20 2
5478 9 1
5479 2 1
5479 3 2
5479 31 1
5479 34 2
5480 5 1
5481 5 1
5482 34 1
5483 18 7
5483 19 24
5483 20 7
5484 22 1
5485 25 1
5485 26 4
5486 21 9
5486 22 8
5487 18 1
5488 1 1
5488 2 8
5488 3 17
5488 31 2
5488 34 11
5489 7 3
5489 8 2
5490 8 1
5490 24 1
5491 15 1
5492 2 1
5493 4 1
5493 5 6
5493 38 1
5494 18 1
5494 31 6
5496 18 1
5496 31 3
5497 24 1
5498 5 1
5498 38 1
5499 2 6
5499 3 11
5499 34 6
5500 19 1
5501 3 1
5502 15 14
5502 16 9
5502 17 9
5503 24 9
5504 8 1
5504 17 1
5505 18 9
5505 19 16
5505 20 5
5506 2 1
5506 14 1
5507 12 1
5508 31 5
5509 3 1
5510 38 1
5511 29 5
5511 30 1
5512 31 3
5513 4 1
5513 5 20
5513 38 22
5514 30 1
5515 3 1
5516 29 1
5517 21 1
5518 21 3
5519 5 1
5520 38 1
5521 15 4
5521 17 2
5522 3 1
5522 19 1
5522 29 8
5523 38 1
5524 5 1
5525 18 6
5525 19 20
5525 20 8
5526 24 1
5527 21 1
5528 9 1
5529 7 1
5530 16 1
5531 28 1
5532 28 2
5533 5 3
5534 29 4
5534 30 1
5535 3 1
5535 4 2
5535 5 11
5535 29 5
5535 34 7
5535 38 12
5536 2 1
5537 26 1
5538 12 4
5538 18 13
5538 19 21
5538 20 9
5539 18 4
5540 2 5
5540 3 9
5540 34 6
5541 34 1
5542 19 1
5543 38 1
5544 18 23
5544 19 32
5544 20 11
5545 18 1
5546 21 29
5546 22 18
5547 3 1
5548 34 1
5549 2 1
5549 34 2
5550 18 1
5551 12 5
5551 14 4
5552 12 1
5553 2 1
5554 5 1
5554 11 1
5555 24 3
5556 3 1
5557 2 17
5557 3 20
5557 29 6
5557 34 21
5558 15 18
5558 16 17
5558 17 6
5559 3 1
5560 2 2
5560 3 6
5560 21 1
5560 34 12
5561 9 9
5561 10 15
5561 11 9
5562 24 16
5562 38 1
5563 7 2
5563 8 1
5564 12 1
5565 5 1
5566 2 1
5566 24 12
5567 29 1
5568 2 4
5568 3 7
5568 34 2
5569 2 1
5570 18 2
5570 19 1
5570 20 2
5571 28 1
5572 29 1
5573 11 1
5574 20 1
5575 19 1
5575 24 13
5576 28 2
5577 21 1
5578 22 1
5579 3 1
5580 4 1
5581 22 1
5581 29 4
5582 18 1
5583 17 1
5584 21 2
5584 22 1
5585 19 1
5585 24 1
5586 3 1
5587 31 2
5588 2 1
5589 3 1
5590 28 1
5590 34 1
5591 29 4
5591 30 1
5592 28 4
5593 5 1
5594 4 1
5594 5 5
5594 38 12
5595 28 1
5596 5 1
5597 38 1
5598 24 1
5599 2 1
5600 23 1
5600 24 14
5601 24 4
5602 5 1
5603 19 1
5603 29 17
5604 8 1
5604 22 1
5605 29 1
5605 31 2
5606 34 1
5607 3 2
5608 2 1
5609 3 1
5609 26 3
5610 28 1
5611 20 1
5612 15 1
5613 10 1
5613 24 6
5614 24 1
5614 38 1
5615 31 1
5616 29 2
5617 34 1
5618 14 1
5619 21 1
5620 29 1
5621 24 10
5622 22 1
5623 3 2
5624 5 1
5625 9 25
5625 10 39
5625 11 21
5625 29 1
5626 2 7
5626 3 9
5626 24 3
5626 28 2
5626 29 1
5626 34 5
5627 5 1
5628 34 1
5629 20 1
5630 18 1
5631 5 12
5631 29 1
5631 38 4
5632 9 1
5633 15 2
5633 17 1
5634 24 17
5635 3 1
5636 17 1
5636 34 1
5637 5 1
5637 38 1
5638 24 6
5639 2 9
5639 3 14
5639 34 23
5640 4 2
5640 5 12
5640 26 5
5640 38 5
5641 3 1
5642 7 1
5643 2 4
5643 3 11
5643 34 11
5644 3 1
5644 38 1
5645 10 2
5645 11 2
5646 18 1
5647 34 1
5648 34 1
5649 22 1
5650 31 1
5651 29 1
5652 1 1
5652 2 16
5652 3 16
5652 24 6
5652 29 1
5652 34 22
5653 18 26
5653 19 30
5653 20 15
5654 34 1
5655 3 1
5656 18 1
5656 22 1
5657 2 1
5658 4 1
5658 5 9
5658 38 7
5659 2 4
5659 3 11
5659 34 11
5660 38 1
5661 7 1
5661 8 3
5662 2 12
5662 3 7
5662 5 1
5662 34 9
5663 31 15
5664 5 1
5664 19 1
5665 5 1
5666 5 1
5666 38 3
5667 5 22
5667 38 27
5668 2 4
5668 3 4
5668 34 8
5669 7 6
5669 8 7
5670 24 24
5671 30 1
5672 5 2
5672 38 1
5673 28 1
5674 29 1
5675 17 1
5675 18 1
5676 9 6
5676 10 10
5676 11 6
5677 21 1
5677 22 1
5678 11 1
5679 4 3
5679 5 12
5679 38 28
5680 31 1
5681 22 1
5682 31 1
5683 34 1
5684 3 1
5684 31 5
5685 34 1
5686 2 1
5687 7 12
5687 8 14
5687 12 16
5687 13 2
5687 14 13
5688 21 1
5689 24 1
5689 28 2
5690 2 2
5690 3 1
5690 34 3
5691 8 1
5692 2 1
5692 3 7
5692 34 4
5693 2 1
5694 4 6
5694 5 30
5694 38 35
5695 3 1
5695 24 1
5695 26 1
5696 38 1
5697 29 1
5698 2 1
5698 34 1
5699 12 1
5699 15 4
5699 16 3
5699 17 7
5700 12 1
5701 31 1
5702 24 3
5702 31 2
5702 34 1
5702 38 1
5703 29 1
5704 29 1
5705 28 5
5706 3 1
5707 18 24
5707 19 27
5707 20 9
5708 26 1
5709 20 1
5710 9 5
5710 10 11
5710 11 8
5711 15 3
5711 16 2
5711 17 3
5711 22 1
5712 24 2
5712 29 2
5712 34 1
5713 17 1
5714 34 1
5715 21 1
5716 5 1
5717 28 1
5717 34 1
5718 2 1
5718 3 1
5718 26 1
5718 34 4
5719 5 1
5719 38 1
5720 21 1
5721 5 1
5722 24 3
5723 14 2
5724 24 1
5725 2 11
5725 3 16
5725 34 28
5726 18 31
5726 19 44
5726 20 15
5727 21 19
5727 22 18
5727 29 1
5728 9 1
5729 28 4
5730 2 2
5730 3 4
5730 34 7
5731 24 15
5732 2 1
5733 1 1
5733 2 20
5733 3 20
5733 34 30
5734 34 1
5735 24 13
5735 26 3
5736 4 2
5736 5 7
5736 38 18
5737 29 1
5738 19 1
5739 5 1
5740 8 1
5741 2 1
5741 29 4
5741 30 1
5742 24 2
5742 31 6
5743 34 1
5744 12 1
5744 21 3
5745 11 1
5745 15 2
5745 34 1
5746 29 1
5747 29 1
5748 18 11
5748 19 6
5748 34 1
5749 29 11
5750 38 1
5751 19 1
5751 29 3
5752 7 1
5753 34 1
5754 24 1
5755 24 2
5756 1 2
5756 2 13
5756 3 20
5756 29 4
5756 30 2
5756 34 19
5757 5 1
5757 12 1
5757 18 1
5757 19 1
5757 20 1
5758 3 1
5758 7 15
5758 8 8
5758 19 1
5759 19 1
5760 31 7
5761 24 1
5762 19 1
5763 15 12
5763 16 11
5763 17 15
5763 20 1
5764 24 11
5765 8 1
5765 18 11
5765 19 20
5765 20 3
5766 5 1
5767 7 1
5767 8 9
5768 18 2
5768 19 3
5768 20 1
5769 10 1
5769 24 8
5770 5 1
5771 2 1
5772 2 1
5773 16 1
5774 14 1
5775 2 1
5776 10 1
5777 18 12
5777 19 17
5777 20 7
5778 21 17
5778 22 9
5779 24 1
5780 3 1
5780 10 1
5781 11 1
5782 28 1
5783 19 1
5784 24 11
5785 29 3
5786 24 4
5786 31 1
5787 9 1
5787 10 2
5787 17 1
5787 34 1
5788 38 1
5789 29 1
5790 28 3
5791 26 3
5791 31 3
5792 20 1
5793 24 1
5793 25 1
5793 38 1
5794 3 1
5795 24 1
5796 24 22
5797 3 1
5798 2 2
5799 19 1
5800 31 23
5801 14 1
5801 18 2
5801 20 1
5802 34 1
5803 24 10
5804 14 1
5805 5 1
5805 18 26
5805 19 36
5805 20 8
5806 7 7
5806 8 8
5807 15 1
5808 15 3
5808 16 1
5808 17 1
5809 19 1
5810 5 1
5811 31 8
5812 28 5
5813 12 1
5814 19 1
5814 24 1
5815 24 1
5815 34 1
5816 9 1
5817 5 1
5818 14 2
5819 26 1
5820 5 1
5821 3 1
5822 2 43
5822 3 95
5822 12 1
5822 22 1
5822 34 113
5823 29 1
5824 24 3
5825 12 14
5825 13 1
5825 14 5
5825 21 2
5825 34 1
5826 24 7
5827 21 1
5828 18 11
5828 19 7
5828 20 3
5828 38 1
5829 26 1
5830 18 20
5830 19 29
5830 20 13
5830 24 1
5831 2 1
5831 29 3
5831 34 2
5832 18 1
5832 19 3
5833 29 8
5833 30 2
5834 3 1
5834 5 1
5834 7 1
5835 34 1
5836 28 5
5836 33 1
5837 28 10
5838 12 1
5839 5 1
5840 10 1
5840 29 3
5840 30 1
5840 38 1
5841 31 3
5842 24 1
5843 1 1
5843 2 9
5843 3 19
5843 34 8
5844 5 1
5844 38 3
5845 3 1
5846 23 1
5846 24 11
5847 5 1
5848 21 21
5848 22 15
5849 29 17
5850 11 1
5851 7 1
5852 3 1
5853 3 1
5853 21 1
5854 24 9
5855 34 1
5856 5 1
5856 26 1
5856 29 1
5857 38 1
5858 19 1
5859 28 1
5860 26 1
5860 29 4
5860 30 1
5861 38 1
5862 9 6
5862 10 9
5862 11 4
5862 12 4
5862 13 1
5862 14 2
5863 3 1
5864 18 1
5865 16 1
5866 8 1
5867 22 1
5868 9 3
5868 10 3
5868 11 7
5868 28 2
5869 24 1
5870 7 1
5870 29 14
5871 5 1
5871 24 17
5872 5 1
5873 15 1
5874 10 1
5874 24 1
5875 2 1
5876 25 1
5876 26 6
5876 29 1
5876 30 2
5877 26 1
5878 29 1
5879 15 4
5879 16 3
5879 17 2
5880 10 3
5880 11 3
5881 4 1
5882 8 1
5883 29 7
5883 30 2
5884 19 1
5885 12 5
5885 14 2
5886 24 1
5887 17 1
5888 5 1
5888 7 3
5888 8 1
5889 3 1
5889 29 1
5889 34 1
5890 2 1
5890 21 26
5890 22 15
5891 17 1
5892 29 4
5893 34 1
5894 24 11
5895 9 13
5895 10 19
5895 11 9
5896 29 12
5896 31 6
5897 3 1
5898 18 1
5899 19 1
5899 20 1
5899 24 1
5899 38 1
5900 5 1
5901 22 1
5902 29 6
5903 24 1
5904 12 1
5904 29 7
5904 30 1
5905 19 1
5906 5 5
5906 38 6
5907 19 1
5908 2 1
5909 12 6
5909 14 4
5910 1 2
5910 2 3
5910 3 16
5910 34 12
5911 3 1
5912 34 1
5913 9 3
5913 10 8
5913 11 4
5914 34 1
5915 5 1
5916 18 1
5916 19 1
5917 2 4
5917 3 5
5917 29 3
5917 34 9
5918 21 1
5918 24 1
5919 17 1
5920 7 3
5920 8 4
5920 15 8
5920 16 9
5920 17 7
5921 24 10
5922 31 1
5923 5 1
5924 1 1
5925 19 1
5925 21 1
5926 12 1
5926 18 6
5926 19 13
5926 20 4
5926 22 1
5927 29 2
5927 34 1
5928 24 2
5929 7 1
5930 38 1
5931 25 1
5931 26 11
5932 7 2
5932 8 2
5932 18 35
5932 19 63
5932 20 25
5932 29 1
5933 2 1
5934 2 5
5934 3 3
5934 34 2
5935 34 1
5935 38 1
5936 15 1
5937 9 1
5937 10 1
5937 11 1
5938 9 2
5938 10 3
5938 11 2
5939 2 1
5940 21 1
5941 3 1
5943 5 1
5944 26 1
5945 24 1
5946 24 14
5947 24 1
5948 5 1
5948 14 1
5949 4 1
5949 5 1
5950 28 7
5951 38 1
5952 22 1
5953 5 1
5954 29 12
5955 3 1
5955 26 1
5956 34 1
5957 3 1
5957 5 9
5957 19 1
5957 38 13
5958 34 1
5959 31 2
5960 4 1
5960 5 4
5960 18 1
5960 38 4
5961 29 1
5962 2 2
5962 3 3
5962 34 1
5963 34 1
5964 2 1
5964 5 1
5965 8 3
5966 15 1
5966 17 2
5966 38 1
5967 8 1
5967 18 1
5967 20 1
5968 2 8
5968 3 4
5968 29 1
5968 34 4
5969 34 1
5970 24 1
5970 25 1
5970 26 9
5971 2 1
5971 10 1
5972 10 1
5973 29 16
5973 30 1
5973 34 1
5974 12 1
5974 21 1
5975 19 1
5976 21 1
5977 29 3
5977 30 1
5978 2 1
5979 9 1
5980 18 32
5980 19 47
5980 20 20
5981 4 1
5982 3 1
5982 12 13
5982 14 8
5982 24 1
5983 24 2
5984 2 18
5984 3 20
5984 24 2
5984 34 22
5985 7 1
5985 8 5
5985 24 1
5986 29 3
5987 29 1
5988 3 1
5989 34 1
5990 29 1
5991 38 2
5992 19 1
5993 3 1
5993 18 16
5993 19 17
5993 20 7
5994 12 1
5995 24 2
5996 26 1
5997 25 1
5997 29 1
5998 2 1
5999 4 1
6000 10 1
6000 24 3
6000 34 1
6001 5 1
6001 38 4
6002 20 1
6002 29 9
6002 30 2
6003 19 1
6004 28 1
6005 5 1
6005 9 3
6005 10 6
6005 11 6
6006 3 4
6006 34 4
6007 26 1
6008 4 1
6008 5 3
6008 11 1
6008 19 1
6008 38 3
6009 24 1
6010 12 1
6011 2 1
6011 3 2
6011 24 5
6011 34 5
6012 20 1
6013 22 1
6014 18 1
6015 28 2
6016 19 1
6017 26 3
6017 31 2
6018 24 1
6019 2 1
6020 5 1
6021 2 1
6021 19 6
6022 24 6
6023 28 2
6024 21 1
6025 5 1
6026 28 1
6027 4 3
6027 5 5
6027 19 1
6027 21 1
6027 28 11
6027 38 5
6028 29 1
6029 19 1
6030 5 1
6030 24 7
6031 4 5
6031 5 17
6031 38 18
6032 28 1
6033 10 1
6034 24 10
6035 14 1
6035 29 3
6036 34 1
6037 3 1
6037 21 41
6037 22 36
6038 2 1
6038 19 1
6038 29 1
6039 4 3
6039 5 10
6039 38 10
6040 4 1
6041 21 5
6041 22 6
6042 8 1
6042 38 1
6043 2 5
6043 3 5
6043 34 6
6044 2 1
6045 1 1
6045 2 30
6045 3 49
6045 34 61
6046 9 1
6047 2 1
6048 11 1
6049 29 1
6049 38 1
6050 9 3
6050 10 6
6050 11 4
6051 15 1
6051 29 1
6052 14 1
6053 12 24
6053 13 1
6053 14 19
6054 15 9
6054 16 4
6054 17 2
6055 18 11
6055 19 15
6055 20 3
6056 3 1
6057 8 1
6057 24 1
6058 3 1
6059 9 3
6059 10 6
6059 11 4
6060 24 10
6061 34 1
6062 16 1
6063 2 1
6064 2 6
6064 3 9
6064 9 1
6064 34 5
6065 21 1
6066 15 1
6067 24 12
6068 19 1
6069 5 1
6070 3 1
6071 24 1
6072 5 3
6072 38 1
6073 5 1
6074 26 3
6074 31 11
6075 31 1
6076 24 1
6077 18 1
6077 19 2
6077 20 2
6078 7 2
6078 8 1
6078 19 1
6078 20 3
6079 29 2
6080 24 1
6080 29 2
6081 3 1
6082 34 1
6083 34 1
6084 1 1
6084 2 2
6084 3 6
6084 34 4
6085 24 22
6085 28 2
6086 24 20
6087 31 3
6088 19 1
6089 38 1
6090 31 1
6091 7 1
6091 19 1
6092 21 1
6093 31 1
6094 24 1
6095 12 1
6096 29 7
6097 8 1
6097 24 1
6098 12 1
6099 29 1
6100 28 4
6101 29 7
6102 24 1
6102 28 1
6103 19 1
6104 12 11
6104 14 10
6105 24 10
6106 21 1
6107 22 1
6108 26 2
6109 5 1
6109 12 1
6109 38 1
6110 29 1
6111 24 1
6112 24 1
6113 24 10
6113 29 1
6114 9 7
6114 10 2
6114 11 1
6115 28 1
6116 3 1
6117 15 5
6117 16 5
6117 17 8
6118 1 1
6118 2 4
6118 3 24
6118 34 20
6119 5 3
6119 15 1
6119 16 1
6119 38 1
6120 29 2
6121 21 9
6121 22 6
6122 17 1
6123 1 1
6123 2 8
6123 3 10
6123 26 4
6123 31 7
6123 34 17
6124 38 1
6125 18 25
6125 19 38
6125 20 11
6126 15 1
6126 29 2
6126 34 1
6127 3 1
6127 10 1
6127 34 1
6128 15 1
6129 3 1
6130 3 1
6130 4 1
6130 12 1
6130 19 1
6130 21 1
6130 22 1
6130 34 2
6131 16 1
6132 12 3
6132 14 1
6132 19 2
6132 22 2
6132 38 1
6133 24 1
6134 19 1
6135 24 4
6136 29 1
6137 7 4
6137 8 2
6138 7 1
6139 24 2
6140 14 1
6141 18 1
6142 24 1
6143 29 1
6144 15 1
6144 17 2
6145 9 7
6145 10 13
6145 11 5
6145 29 1
6146 2 1
6146 3 1
6146 34 4
6147 24 1
6148 2 10
6148 3 18
6148 18 1
6148 34 18
6148 38 1
6149 38 1
6150 5 1
6150 21 1
6150 26 11
6151 9 1
6151 10 3
6152 3 3
6152 34 1
6153 19 5
6153 20 1
6154 28 2
6155 2 1
6156 15 6
6156 16 3
6156 17 2
6157 24 1
6158 24 8
6159 5 7
6159 7 1
6159 38 5
6160 29 1
6161 20 1
6161 24 1
6162 34 1
6163 34 1
6164 20 1
6165 1 1
6165 2 16
6165 3 28
6165 34 32
6166 34 1
6167 19 1
6168 28 6
6169 34 1
6170 22 1
6170 24 2
6171 24 9
6172 24 1
6173 4 1
6173 5 21
6173 38 18
6174 8 1
6175 12 1
6176 11 1
6176 24 4
6176 26 2
6176 29 15
6176 34 1
6177 2 1
6178 2 1
6178 3 3
6178 34 3
6179 5 1
6180 19 3
6181 18 1
6181 31 1
6182 24 1
6183 2 1
6184 12 5
6184 14 3
6184 34 1
6185 24 1
6186 19 1
6187 12 1
6188 31 1
6189 19 1
6190 2 1
6191 5 5
6191 38 6
6192 24 9
6193 2 16
6193 3 39
6193 34 59
6194 31 3
6195 3 1
6196 12 1
6197 21 1
6198 29 18
6198 30 1
6199 15 11
6199 16 7
6199 17 9
6200 9 1
6200 28 1
6201 4 2
6201 5 16
6201 38 20
6202 18 1
6202 34 1
6203 31 8
6204 17 1
6205 29 6
6206 29 2
6206 30 1
6207 12 11
6207 14 1
6208 5 1
6209 3 1
6210 2 1
6210 34 1
6210 38 1
6211 29 2
6212 24 2
6213 2 7
6213 3 17
6213 34 9
6214 7 1
6214 22 1
6214 34 1
6215 1 1
6215 2 1
6215 3 4
6215 5 3
6215 34 9
6215 38 2
6216 3 1
6216 29 4
6216 30 2
6216 34 1
6217 3 1
6218 3 1
6218 18 1
6219 12 24
6219 13 2
6219 14 10
6219 29 1
6220 14 1
6221 34 1
6222 4 1
6223 3 1
6223 28 3
6224 23 1
6224 24 6
6225 18 17
6225 19 31
6225 20 14
6226 26 1
6227 2 17
6227 3 25
6227 24 1
6227 34 18
6228 4 3
6228 5 27
6228 24 1
6228 34 1
6228 38 28
6229 34 1
6230 24 8
6230 34 1
6231 24 11
6232 31 3
6233 21 6
6233 22 1
6233 28 1
6234 12 1
6235 20 1
6236 12 1
6237 34 1
6238 10 1
6239 17 1
6240 15 1
6241 21 1
6241 22 2
6242 12 1
6243 2 1
6244 38 1
6245 29 5
6246 3 1
6247 5 1
6247 31 8
6248 11 1
6248 15 1
6248 19 1
6249 19 1
6250 24 1
6251 8 1
6252 29 1
6253 21 1
6253 22 1
6254 38 1
6255 34 1
6256 3 1
6257 38 1
6258 29 1
6259 3 1
6259 24 8
6260 29 9
6260 30 1
6261 29 2
6262 2 1
6262 34 1
6263 29 10
6263 30 2
6264 3 1
6264 5 2
6264 34 1
6265 29 1
6266 24 3
6267 38 1
6268 5 2
6269 12 6
6269 14 2
6269 19 1
6270 1 2
6270 2 12
6270 3 55
6270 18 12
6270 19 15
6270 20 6
6270 34 36
6271 3 1
6272 31 7
6273 14 1
6273 21 1
6274 3 1
6275 2 9
6275 3 20
6275 34 20
6276 19 1
6277 38 1
6278 18 1
6279 29 10
6280 29 2
6281 3 1
6282 24 1
6283 24 1
6284 2 1
6284 29 16
6284 30 1
6285 7 1
6285 8 2
6286 13 1
6287 29 1
6288 3 1
6289 29 16
6289 30 1
6290 12 1
6291 14 1
6292 24 1
6293 24 2
6293 28 1
6294 28 2
6294 34 1
6295 3 1
6296 14 4
6296 34 1
6297 38 1
6298 21 27
6298 22 14
6299 38 1
6300 3 1
6300 19 1
6300 38 1
6301 24 3
6302 17 1
6303 17 1
6304 21 1
6305 18 29
6305 19 46
6305 20 22
6306 21 2
6307 15 8
6307 16 7
6307 17 6
6308 10 2
6308 11 4
6309 24 3
6310 21 16
6310 22 13
6311 26 5
6311 29 8
6311 30 3
6312 18 1
6312 21 1
6313 7 1
6313 28 2
6314 38 1
6315 11 1
6316 34 1
6317 21 1
6318 4 3
6318 5 6
6318 24 1
6318 38 5
6319 9 1
6319 38 1
6320 19 1
6321 3 1
6322 34 1
6323 24 1
6324 38 1
6325 5 1
6326 11 1
6326 16 1
6326 17 1
6327 20 1
6327 38 1
6328 24 1
6329 19 1
6329 28 1
6330 29 1
6330 31 1
6331 12 31
6331 13 2
6331 14 53
6331 34 1
6332 24 1
6333 38 1
6334 2 1
6334 24 35
6335 19 1
6335 29 12
6335 30 1
6336 24 1
6336 25 1
6336 26 4
6336 31 4
6337 18 1
6338 3 1
6338 5 1
6338 10 2
6338 38 1
6339 38 1
6340 34 1
6341 8 1
6342 10 1
6342 20 1
6343 12 1
6344 2 9
6344 3 12
6344 34 13
6345 38 1
6346 24 19
6347 2 1
6347 22 1
6347 29 1
6348 4 1
6348 7 2
6348 8 1
6348 38 1
6349 28 2
6350 28 2
6351 4 1
6352 19 1
6353 38 1
6354 22 1
6355 3 1
6356 25 1
6356 26 1
6357 21 1
6358 34 1
6359 4 6
6359 5 10
6359 38 10
6360 7 1
6360 24 6
6361 21 1
6362 29 1
6363 19 1
6364 22 1
6364 29 1
6365 18 1
6366 2 1
6367 3 1
6367 18 1
6368 19 1
6369 24 15
6370 29 8
6371 12 1
6371 14 2
6372 22 1
6373 34 1
6374 16 1
6375 9 1
6377 38 1
6378 3 1
6379 7 2
6379 8 2
6379 34 1
6380 14 1
6381 3 1
6381 19 1
6381 22 1
6381 31 1
6381 38 1
6382 2 5
6382 3 14
6382 34 5
6383 4 3
6383 5 20
6383 38 15
6384 3 1
6384 22 1
6385 3 1
6385 31 18
6386 4 2
6386 5 16
6386 38 11
6387 24 2
6388 5 1
6388 38 1
6389 18 7
6389 19 6
6389 20 2
6389 34 1
6390 24 1
6391 38 1
6392 29 11
6392 31 3
6393 8 1
6394 24 2
6394 26 2
6394 29 1
6395 3 1
6396 24 6
6397 34 1
6398 2 10
6398 3 31
6398 34 27
6399 31 15
6400 15 3
6400 16 2
6401 16 1
6401 34 1
6402 22 1
6403 29 1
6404 14 1
6405 34 1
6406 18 1
6407 12 1
6408 2 1
6408 3 3
6408 19 1
6408 29 1
6409 38 1
6410 2 1
6411 26 1
6412 31 1
6412 38 1
6413 29 1
6414 29 18
6414 30 1
6415 29 1
6416 18 19
6416 19 24
6416 20 4
6417 24 1
6418 38 1
6419 19 1
6420 12 2
6420 14 4
6421 2 1
6422 30 1
6423 24 1
6424 34 1
6426 34 1
6427 18 4
6427 19 3
6427 20 4
6428 29 3
6428 30 1
6429 31 2
6430 38 1
6431 3 1
6431 4 1
6432 24 2
6432 28 1
6432 31 5
6433 7 8
6433 8 8
6433 18 19
6433 19 17
6433 20 9
6434 19 1
6434 21 1
6435 17 1
6436 19 1
6437 3 1
6438 20 1
6439 34 1
6440 4 1
6441 21 1
6441 28 3
6442 18 1
6443 34 1
6444 34 1
6444 38 1
6445 29 3
6446 34 1
6447 29 1
6448 24 1
6449 24 6
6450 18 46
6450 19 52
6450 20 9
6450 24 1
6451 34 1
6452 18 5
6452 19 3
6452 24 1
6452 26 1
6453 22 1
6454 15 1
6455 31 3
6456 24 1
6457 12 5
6457 14 8
6457 38 1
6458 4 2
6458 5 29
6458 29 3
6458 30 1
6458 38 18
6459 3 3
6459 5 1
6459 34 1
6460 24 1
6461 29 12
6462 4 5
6462 5 24
6462 12 1
6462 38 33
6463 22 1
6464 2 6
6464 3 14
6464 34 8
6465 26 2
6466 7 1
6466 8 1
6467 12 2
6467 14 1
6468 18 1
6469 15 1
6469 24 2
6470 7 5
6470 8 3
6471 26 1
6472 31 2
6473 2 1
6473 7 1
6474 24 2
6474 38 1
6475 20 1
6476 38 1
6477 5 1
6478 7 1
6478 31 3
6479 19 1
6479 29 18
6480 28 3
6481 4 3
6481 5 7
6481 38 12
6482 12 2
6482 14 1
6483 22 1
6484 31 1
6485 38 1
6486 12 1
6487 12 1
6488 18 1
6489 3 1
6490 19 1
6490 29 1
6491 24 5
6492 3 1
6493 18 1
6493 20 1
6493 24 1
6494 5 1
6494 38 1
6495 3 1
6496 21 36
6496 22 29
6497 34 1
6498 19 1
6499 22 1
6500 2 9
6500 3 10
6500 10 1
6500 34 7
6501 21 1
6502 24 3
6503 38 1
6504 2 1
6505 18 3
6505 19 9
6505 20 1
6506 2 24
6506 3 37
6506 34 25
6507 5 1
6507 29 2
6508 4 1
6508 5 9
6508 19 1
6508 38 7
6509 29 1
6510 24 1
6510 31 1
6511 8 1
6512 34 1
6513 4 1
6513 5 4
6513 38 6
6514 28 1
6515 4 1
6515 5 4
6515 38 2
6516 1 1
6516 2 7
6516 3 32
6516 34 25
6517 34 1
6518 20 1
6519 3 1
6519 21 7
6519 22 6
6520 5 8
6520 38 5
6521 3 1
6522 2 1
6523 19 1
6524 21 1
6525 1 2
6525 2 17
6525 3 8
6525 34 22
6526 2 1
6527 2 1
6527 34 1
6528 24 1
6529 28 1
6530 21 1
6530 22 1
6530 29 2
6531 18 1
6531 19 2
6532 7 1
6532 24 1
6533 19 1
6534 28 2
6535 18 1
6536 11 1
6537 29 1
6538 15 12
6538 16 7
6538 17 3
6539 34 1
6540 24 1
6541 34 1
6542 1 1
6542 2 24
6542 3 45
6542 28 1
6542 34 34
6543 38 1
6544 11 1
6545 12 1
6546 38 1
6547 2 1
6548 12 1
6549 3 1
6549 31 3
6550 3 4
6550 22 1
6550 34 5
6551 3 1
6552 11 1
6552 29 2
6553 7 2
6553 8 7
6553 14 1
6554 38 1
6555 29 1
6556 24 2
6557 34 1
6558 21 9
6558 22 12
6559 2 1
6559 12 3
6559 14 5
6559 24 1
6560 24 2
6561 5 1
6562 21 1
6563 12 1
6563 22 2
6564 7 1
6565 12 1
6566 18 1
6567 34 1
6568 5 1
6568 24 1
6569 3 1
6570 2 12
6570 3 18
6570 9 1
6570 34 15
6570 38 1
6571 34 1
6572 34 1
6573 3 1
6574 16 1
6575 5 1
6576 2 4
6576 3 8
6576 29 1
6576 31 1
6576 34 16
6577 29 1
6578 3 1
6579 3 1
6580 34 1
6581 38 1
6582 34 1
6583 2 1
6584 11 1
6585 24 16
6586 1 1
6586 2 13
6586 3 46
6586 34 53
6587 14 1
6587 31 1
6588 8 1
6589 2 2
6589 3 9
6589 34 12
6590 34 1
6591 24 1
6592 24 1
6593 3 1
6594 29 1
6595 9 1
6595 10 4
6595 11 1
6596 29 2
6597 1 1
6597 2 28
6597 3 94
6597 34 88
6598 24 1
6599 15 1
6600 34 1
6601 11 1
6602 34 1
6603 12 5
6603 14 1
6604 7 5
6604 8 18
6605 15 1
6606 34 1
6607 38 1
6608 2 1
6609 2 2
6609 3 1
6609 34 4
6610 34 1
6611 19 1
6612 26 2
6613 31 1
6614 2 3
6614 3 3
6614 11 1
6614 24 1
6614 34 5
6615 1 1
6615 2 5
6615 3 2
6615 34 1
6616 19 1
6617 31 1
6618 34 1
6619 19 1
6620 19 1
6621 12 1
6622 34 1
6623 38 1
6624 3 1
6624 5 1
6625 29 2
6626 7 1
6626 9 2
6626 10 1
6626 11 2
6626 28 1
6627 18 1
6627 19 1
6628 2 4
6628 3 5
6628 34 11
6629 18 1
6630 29 1
6631 1 1
6631 2 35
6631 3 42
6631 34 53
6631 38 1
6632 29 1
6633 3 1
6633 31 14
6634 2 1
6634 3 4
6634 34 4
6635 2 1
6635 5 5
6635 12 1
6635 38 2
6636 4 3
6636 5 15
6636 38 19
6637 19 1
6638 29 1
6639 5 1
6640 31 14
6641 24 5
6641 31 1
6642 31 1
6643 11 43
6643 14 1
6644 34 1
6645 29 1
6646 17 2
6647 5 1
6647 38 1
6648 28 1
6649 5 4
6649 34 1
6649 38 6
6650 38 2
6651 2 2
6652 31 1
6653 8 1
6653 9 16
6653 10 24
6653 11 12
6654 3 1
6654 8 1
6655 29 2
6656 24 6
6657 24 6
6658 24 1
6659 21 2
6659 22 5
6660 3 4
6660 34 1
6661 5 1
6661 38 1
6662 26 2
6663 34 1
6664 11 1
6665 16 1
6666 24 1
6667 17 1
6668 31 6
6669 21 3
6669 22 1
6670 34 1
6671 29 1
6672 19 1
6673 2 1
6674 24 1
6674 28 5
6674 29 5
6675 3 1
6676 24 1
6677 7 6
6677 8 3
6678 2 4
6678 3 6
6678 34 3
6679 24 1
6680 2 1
6680 31 1
6680 34 2
6681 29 2
6681 30 1
6682 29 1
6683 29 3
6684 2 22
6684 3 33
6684 34 43
6685 12 1
6686 38 1
6687 38 1
6688 3 1
6688 18 1
6688 29 17
6688 30 3
6689 24 1
6690 24 17
6690 25 1
6690 26 9
6690 34 1
6692 3 1
6693 34 1
6694 3 1
6695 5 1
6695 38 1
6696 18 1
6696 19 1
6697 28 1
6698 34 1
6699 29 1
6700 3 1
6701 28 4
6702 19 1
6703 5 1
6703 38 2
6704 5 1
6704 10 1
6705 3 1
6705 8 1
6705 24 9
6706 3 1
6707 1 2
6707 2 39
6707 3 66
6707 34 67
6707 38 1
6708 29 14
6709 26 1
6710 18 2
6710 19 2
6711 23 1
6712 34 1
6713 9 1
6714 19 1
6715 34 1
6716 29 1
6717 17 1
6718 31 6
6719 34 1
6720 5 1
6721 15 1
6721 16 1
6721 38 1
6722 18 1
6722 20 1
6723 2 1
6723 24 1
6724 8 1
6724 15 1
6724 16 1
6725 8 1
6725 9 2
6725 11 3
6726 12 1
6726 14 1
6727 4 1
6727 38 1
6728 12 29
6728 14 22
6729 2 1
6729 3 1
6729 34 1
6730 28 1
6731 26 1
6731 29 8
6731 30 2
6732 31 1
6733 3 1
6734 12 1
6735 2 1
6735 25 2
6735 26 1
6736 24 5
6736 29 1
6737 28 3
6738 26 5
6739 5 1
6740 18 1
6741 7 1
6742 24 9
6743 18 1
6744 34 1
6745 5 8
6745 15 2
6745 16 2
6745 34 1
6745 38 5
6746 21 1
6746 22 2
6747 24 1
6748 3 1
6748 29 1
6748 31 1
6749 15 1
6750 29 1
6750 38 1
6751 14 1
6752 19 1
6753 3 2
6753 34 3
6754 1 1
6755 22 1
6756 21 10
6756 22 7
6756 29 1
6757 29 1
6758 34 1
6759 3 1
6759 24 1
6759 31 1
6759 34 2
6760 26 1
6761 10 1
6762 29 1
6762 34 1
6763 3 1
6763 19 1
6763 29 1
6764 18 1
6765 38 1
6766 20 1
6767 3 2
6767 34 1
6768 4 1
6769 18 1
6769 19 1
6770 3 6
6770 34 1
6771 19 1
6771 34 1
6772 21 1
6772 22 1
6773 15 2
6774 19 1
6775 28 1
6775 38 1
6776 19 1
6777 29 1
6778 8 1
6778 34 1
6779 18 1
6780 19 1
6781 1 2
6781 2 18
6781 3 40
6781 34 41
6782 12 1
6783 22 1
6784 34 1
6785 4 1
6786 24 4
6787 5 1
6787 28 5
6788 20 1
6789 12 1
6789 24 1
6790 18 1
6790 19 1
6791 38 1
6792 8 1
6792 24 1
6792 29 29
6792 30 1
6793 26 20
6793 38 1
6794 5 1
6795 31 1
6796 38 4
6797 14 1
6797 28 5
6798 2 1
6799 20 1
6800 21 1
6801 9 1
6802 17 1
6802 18 1
6802 19 3
6802 20 2
6803 24 1
6804 10 1
6805 24 1
6806 38 1
6807 24 1
6808 21 1
6808 29 1
6809 31 5
6810 5 1
6811 2 1
6811 3 2
6811 34 4
6812 34 1
6813 21 2
6813 22 1
6814 18 1
6815 30 1
6816 2 2
6816 34 1
6817 10 2
6817 11 1
6818 4 1
6819 24 1
6820 28 1
6821 38 2
6822 3 1
6823 17 1
6824 8 1
6825 19 1
6826 11 1
6827 24 1
6828 18 1
6829 31 1
6830 24 1
6831 34 1
6832 14 1
6833 10 2
6833 11 1
6833 19 1
6834 17 1
6835 15 1
6836 1 1
6836 2 10
6836 3 18
6836 34 30
6837 3 1
6838 18 1
6838 19 2
6839 3 1
6840 35 1
6841 5 1
6842 10 1
6842 29 12
6843 29 1
6844 2 17
6844 3 33
6844 34 30
6845 28 2
6846 5 1
6847 29 1
6848 2 1
6848 3 4
6848 34 5
6849 21 5
6849 22 4
6850 19 1
6851 8 1
6852 18 1
6853 7 5
6853 8 3
6855 1 1
6855 2 16
6855 3 27
6855 34 35
6856 15 1
6857 12 1
6857 19 1
6857 20 1
6858 4 9
6858 5 43
6858 38 25
6859 29 1
6860 3 1
6860 34 1
6861 4 2
6861 5 16
6861 9 1
6861 10 1
6861 11 1
6861 15 2
6861 16 1
6861 17 2
6861 18 2
6861 34 1
6861 38 8
6862 3 1
6863 11 1
6864 34 1
6865 2 1
6865 21 1
6866 29 1
6867 24 1
6868 29 11
6869 38 1
6870 29 1
6871 12 1
6872 31 1
6873 12 1
6874 3 1
6874 34 2
6874 38 1
6875 17 1
6876 2 1
6877 30 1
6878 24 2
6879 24 9
6879 28 4
6880 12 1
6881 29 16
6881 38 1
6882 8 1
6883 24 3
6884 3 1
6885 2 2
6886 24 1
6886 34 1
6887 5 2
6887 38 1
6888 3 1
6889 28 1
6890 10 1
6891 5 6
6891 12 6
6891 14 3
6891 38 6
6892 38 2
6893 18 1
6893 19 4
6894 18 1
6894 19 1
6895 28 2
6896 7 1
6896 9 1
6896 24 1
6897 21 2
6897 22 1
6898 9 4
6898 10 6
6898 11 6
6899 12 1
6900 24 1
6901 8 1
6902 2 2
6902 3 3
6902 34 2
6903 21 2
6904 29 1
6905 14 1
6906 29 1
6907 24 1
6908 12 1
6909 3 1
6909 4 1
6909 21 1
6910 5 1
6910 18 1
6911 5 1
6912 19 1
6912 24 2
6913 5 1
6914 15 10
6914 16 7
6914 17 2
6915 19 1
6916 26 1
6918 3 1
6918 34 2
6919 4 4
6919 5 22
6919 17 1
6919 38 31
6920 12 1
6921 1 1
6921 2 3
6921 3 8
6921 29 10
6921 34 2
6922 2 1
6923 3 1
6924 3 1
6924 4 11
6924 5 41
6924 38 47
6925 15 1
6925 18 1
6925 19 1
6925 31 1
6926 2 1
6927 24 1
6928 16 1
6929 5 1
6930 7 1
6931 34 1
6932 29 7
6933 34 1
6934 7 5
6934 8 2
6934 11 1
6935 7 1
6935 8 3
6935 9 3
6935 10 8
6935 11 2
6935 38 1
6936 1 1
6937 3 1
6937 26 1
6938 28 1
6939 9 1
6940 3 1
6941 28 1
6942 29 1
6943 31 3
6944 7 1
6944 8 4
6944 14 1
6945 5 2
6945 18 1
6945 38 4
6946 19 1
6946 30 1
6947 12 3
6947 13 1
6947 14 3
6948 7 1
6948 8 3
6948 15 5
6948 16 2
6948 17 7
6948 22 1
6949 18 5
6949 19 13
6949 20 2
6950 34 1
6951 3 1
6951 15 1
6952 24 1
6953 24 8
6953 26 1
6953 31 5
6954 19 1
6955 4 1
6955 5 9
6955 24 4
6955 38 5
6956 3 1
6957 24 9
6957 31 6
6958 19 1
6959 8 1
6960 12 1
6960 14 2
6960 16 1
6961 12 9
6961 13 1
6961 14 3
6962 34 1
6963 3 1
6964 2 1
6965 18 24
6965 19 45
6965 20 22
6965 28 1
6965 34 1
6966 27 1
6967 34 1
6968 34 1
6969 7 1
6970 29 5
6970 30 1
6971 14 1
6972 12 1
6973 18 13
6973 19 21
6973 20 8
6974 14 1
6974 24 26
6975 24 1
6976 18 1
6977 11 1
6978 5 1
6979 7 1
6980 4 3
6980 5 8
6980 38 6
6981 31 1
6982 9 1
6983 29 3
6984 10 4
6984 11 4
6985 3 1
6985 31 3
6986 38 1
6987 24 1
6988 12 1
6989 18 4
6989 19 1
6989 20 3
6990 5 1
6991 5 3
6991 38 6
6992 31 1
6993 21 1
6994 34 1
6995 3 1
6996 21 1
6997 7 1
6998 24 1
6998 26 1
6999 15 1
6999 19 9
6999 20 2
7000 34 1
7001 29 1
7002 11 1
7003 7 3
7003 8 5
7003 38 1
7004 5 3
7004 38 1
7005 29 1
7006 11 1
7007 18 12
7007 19 25
7007 20 17
7008 31 1
7009 3 1
7009 4 2
7009 5 17
7009 34 1
7009 38 20
7010 2 2
7010 3 4
7010 34 4
7011 34 1
7012 29 17
7013 21 10
7013 22 9
7013 34 1
7013 38 1
7014 5 1
7014 38 1
7015 18 1
7016 29 1
7017 12 1
7018 9 6
7018 10 4
7018 11 7
7019 29 7
7019 30 2
7020 34 1
7021 26 2
7022 28 3
7022 29 1
7023 10 1
7024 34 1
7025 34 1
7026 1 1
7027 9 2
7027 29 7
7027 30 1
7028 29 1
7029 21 5
7029 22 4
7029 26 1
7029 29 13
7030 21 1
7030 29 3
7030 30 1
7031 2 1
7031 29 7
7031 30 1
7032 3 1
7032 5 1
7032 17 1
7033 34 1
7034 4 2
7034 5 1
7034 38 7
7035 31 1
7036 29 5
7037 15 1
7038 12 41
7038 13 1
7038 14 35
7039 38 1
7040 24 7
7041 9 9
7041 10 23
7041 11 6
7042 24 2
7043 3 1
7043 34 2
7044 24 2
7044 26 1
7045 34 2
7046 12 1
7046 21 11
7046 22 17
7047 34 1
7048 19 1
7049 28 10
7050 2 1
7050 12 2
7050 14 6
7050 34 1
7051 18 20
7051 19 28
7051 20 10
7052 1 1
7053 29 3
7054 20 1
7055 9 3
7055 10 8
7055 11 14
7056 2 1
7057 29 4
7058 20 1
7059 29 2
7059 31 4
7060 5 1
7061 5 5
7061 18 3
7061 19 3
7061 38 7
7062 24 1
7063 8 2
7064 7 1
7065 19 1
7066 31 9
7066 33 1
7067 34 1
7068 29 1
7069 28 4
7070 2 4
7070 3 19
7070 34 18
7071 18 1
7072 7 1
7072 8 5
7073 2 1
7073 38 1
7074 29 10
7074 30 1
7075 17 1
7075 28 1
7076 10 4
7076 11 3
7076 21 2
7076 22 2
7076 38 1
7077 4 2
7078 4 6
7078 5 11
7078 38 23
7079 9 2
7079 10 5
7079 11 2
7079 18 1
7079 29 1
7080 29 14
7081 21 16
7081 22 3
7082 2 2
7083 29 1
7084 19 1
7085 24 18
7086 5 1
7087 8 1
7088 31 1
7089 31 19
7090 22 1
7091 34 1
7092 34 1
7093 2 1
7093 3 1
7093 34 2
7094 1 2
7094 2 39
7094 3 73
7094 34 111
7095 31 11
7095 34 1
7096 2 14
7096 3 24
7096 34 27
7097 3 1
7098 3 1
7099 2 1
7100 3 1
7100 24 15
7101 34 1
7102 29 12
7103 34 1
7103 38 2
7104 3 1
7104 12 4
7105 3 1
7106 3 1
7106 18 1
7107 18 1
7108 1 1
7108 2 20
7108 3 38
7108 34 27
7109 15 1
7110 26 2
7111 28 4
7112 24 6
7113 20 1
7114 31 1
7115 2 4
7115 3 12
7115 24 1
7115 34 17
7116 12 10
7116 14 7
7116 23 1
7116 24 6
7117 29 1
7118 22 1
7118 24 13
7119 4 1
7120 3 1
7120 24 23
7121 12 1
7121 18 20
7121 19 46
7121 20 11
7122 5 1
7123 21 1
7124 29 17
7124 30 4
7125 2 2
7125 3 3
7125 24 25
7125 31 4
7125 34 10
7126 26 1
7126 29 4
7127 29 3
7128 24 1
7129 2 1
7129 14 1
7129 21 1
7129 34 1
7129 38 1
7130 5 1
7131 5 5
7131 38 6
7132 3 1
7133 7 1
7133 18 1
7134 31 1
7135 14 1
7136 38 1
7137 29 1
7138 34 1
7139 21 2
7139 22 1
7140 18 9
7140 19 15
7140 20 2
7141 3 1
7141 34 1
7142 31 3
7143 24 1
7144 1 2
7144 3 8
7144 34 4
7145 31 7
7146 20 1
7146 24 1
7146 34 2
7147 25 1
7147 38 1
7148 31 5
7149 38 1
7150 4 1
7150 5 13
7150 38 9
7151 34 1
7152 24 1
7153 16 1
7154 4 8
7154 5 18
7154 38 16
7155 28 2
7156 2 13
7156 3 18
7156 4 1
7156 34 22
7157 12 5
7157 14 2
7158 5 7
7158 18 1
7158 19 2
7158 20 1
7158 38 4
7159 18 1
7160 29 2
7161 10 1
7162 4 9
7162 5 26
7162 19 1
7162 34 1
7162 38 36
7163 13 1
7163 21 1
7163 22 1
7164 5 1
7164 38 3
7165 10 1
7166 5 1
7167 26 13
7168 24 4
7169 19 1
7170 24 8
7171 29 1
7172 24 1
7172 29 1
7173 29 1
7173 38 1
7174 24 18
7175 2 1
7176 19 1
7177 34 1
7178 28 1
7179 38 1
7180 2 11
7180 3 18
7180 34 13
7181 31 5
7182 29 1
7183 2 1
7184 2 1
7184 18 15
7184 19 16
7185 24 1
7186 5 1
7187 2 3
7187 3 3
7187 34 4
7188 2 6
7188 3 12
7188 34 18
7189 3 1
7190 8 1
7191 24 1
7192 3 1
7193 29 3
7193 30 1
7194 3 1
7194 31 8
7195 11 1
7195 18 1
7195 29 23
7196 19 1
7197 2 1
7197 3 1
7198 10 1
7199 29 1
7200 18 1
7201 16 1
7202 3 1
7203 12 33
7203 13 1
7203 14 26
7203 21 1
7204 34 1
7205 34 1
7206 38 1
7207 34 1
7208 29 17
7209 9 1
7209 10 2
7209 38 3
7210 22 2
7211 18 1
7212 3 1
7213 24 3
7214 31 5
7215 5 1
7216 29 12
7217 12 2
7217 24 1
7218 3 1
7218 9 1
7218 10 4
7218 11 1
7218 22 1
7219 18 1
7220 20 1
7221 15 1
7222 10 1
7223 11 1
7223 23 1
7223 24 6
7223 26 2
7224 10 1
7225 29 2
7226 23 1
7226 24 27
7227 11 1
7228 29 9
7229 2 3
7229 3 1
7229 5 1
7229 34 6
7230 38 1
7231 2 9
7231 3 23
7231 34 24
7231 38 1
7232 19 1
7233 24 1
7234 8 1
7235 2 1
7236 3 2
7237 3 1
7237 5 1
7237 28 3
7238 24 34
7238 26 11
7238 34 1
7239 21 1
7240 21 9
7240 22 4
7241 14 1
7242 19 1
7242 24 1
7242 28 4
7242 38 1
7243 34 1
7244 29 1
7245 21 1
7246 21 15
7246 22 10
7247 21 13
7247 22 8
7248 4 4
7248 5 17
7248 38 21
7249 11 2
7250 8 1
7251 11 1
7252 31 9
7253 9 4
7253 10 9
7253 11 7
7254 29 6
7255 31 16
7256 28 4
7257 4 9
7257 5 22
7257 38 30
7258 29 1
7258 31 3
7259 29 19
7259 30 1
7260 24 1
7261 34 1
7262 5 2
7263 3 1
7264 15 9
7264 16 8
7264 17 7
7265 5 1
7265 10 1
7266 31 2
7267 24 1
7268 5 1
7268 31 10
7269 5 1
7270 3 1
7271 18 1
7272 18 33
7272 19 35
7272 20 20
7273 1 1
7273 2 8
7273 3 21
7273 34 31
7274 28 5
7275 29 8
7276 19 1
7277 16 1
7278 12 1
7279 7 4
7279 8 2
7279 18 2
7279 19 2
7279 20 2
7280 3 2
7280 34 1
7281 2 1
7282 1 1
7283 38 1
7284 21 17
7284 22 12
7285 5 9
7285 14 1
7285 26 1
7285 38 10
7286 15 8
7286 16 3
7286 17 5
7286 19 1
7287 18 3
7287 19 2
7287 20 1
7287 34 1
7287 38 1
7288 34 1
7289 28 1
7290 20 1
7291 19 2
7291 29 6
7292 15 8
7292 16 6
7292 17 9
7292 38 1
7293 5 1
7293 24 6
7294 24 2
7295 34 1
7296 2 1
7296 5 1
7297 3 1
7297 8 1
7297 15 1
7298 2 18
7298 3 25
7298 34 28
7299 20 1
7300 29 20
7301 29 1
7302 20 1
7303 34 1
7304 7 1
7304 8 1
7304 24 1
7304 34 1
7305 26 1
7306 24 1
7307 2 1
7307 24 9
7307 26 1
7307 29 7
7308 4 1
7308 5 5
7308 38 5
7309 10 1
7310 5 1
7311 1 1
7311 2 10
7311 3 30
7311 34 36
7312 38 1
7313 4 3
7313 5 2
7313 38 5
7314 22 1
7315 3 1
7315 28 3
7316 2 1
7317 11 1
7318 1 1
7318 2 18
7318 3 28
7318 24 20
7318 34 30
7319 26 2
7319 29 1
7320 34 1
7321 21 1
7322 3 1
7323 29 2
7324 15 12
7324 16 10
7324 17 9
7324 18 1
7325 22 1
7326 29 1
7327 34 1
7328 20 1
7328 26 6
7329 7 1
7329 8 1
7330 21 1
7330 29 7
7331 4 2
7331 5 23
7331 21 1
7331 34 1
7331 38 13
7332 24 2
7333 29 17
7333 30 3
7334 38 1
7335 31 6
7336 11 2
7336 18 3
7336 19 6
7336 20 1
7337 24 1
7337 29 1
7338 4 7
7338 5 18
7338 18 4
7338 19 1
7338 38 19
7339 34 1
7340 34 1
7341 34 1
7342 24 5
7343 4 3
7343 5 16
7343 29 20
7343 30 2
7343 34 1
7343 38 16
7344 5 1
7344 34 1
7345 3 1
7346 21 1
7347 9 1
7347 38 1
7348 2 2
7348 3 6
7348 34 13
7349 16 1
7349 34 1
7350 18 1
7351 4 1
7351 22 1
7352 4 1
7353 5 1
7354 18 4
7354 19 8
7354 20 7
7355 1 1
7355 2 18
7355 3 41
7355 34 30
7356 8 1
7356 15 2
7357 8 1
7358 12 1
7359 18 5
7359 19 9
7359 20 8
7360 12 29
7360 13 1
7360 14 22
7361 12 5
7361 14 5
7361 19 1
7362 24 11
7363 31 1
7364 2 1
7365 3 1
7366 2 1
7367 18 1
7367 19 2
7367 20 3
7368 29 1
7369 2 3
7369 3 14
7369 34 10
7370 3 1
7371 2 3
7371 3 4
7371 29 3
7372 21 1
7373 9 1
7373 17 1
7373 28 1
7374 31 10
7375 8 1
7376 10 1
7377 24 10
7378 16 1
7379 12 6
7379 14 3
7380 12 31
7380 13 2
7380 14 18
7381 26 1
7382 4 10
7382 5 16
7382 8 2
7382 29 1
7382 38 18
7383 28 2
7384 14 1
7385 24 11
7385 34 1
7386 24 1
7387 16 1
7387 24 1
7388 24 1
7389 9 2
7389 11 1
7390 38 1
7391 4 5
7391 5 19
7391 38 14
7392 5 1
7393 8 1
7393 19 1
7393 28 7
7394 19 1
7395 38 2
7396 38 1
7397 29 1
7398 5 1
7399 11 1
7400 5 1
7401 3 1
7402 19 1
7403 24 1
7404 34 1
7405 38 1
7406 29 1
7407 14 1
7408 29 6
7409 2 1
7410 38 1
7411 14 1
7412 2 4
7412 3 9
7412 34 8
7413 15 7
7413 16 5
7413 17 7
7413 29 4
7414 2 2
7414 3 3
7414 34 4
7415 14 2
7416 4 9
7416 5 17
7416 38 27
7417 26 1
7418 2 1
7419 5 1
7420 38 1
7421 12 2
7421 14 2
7421 29 1
7422 1 1
7422 2 7
7422 3 7
7422 34 9
7423 2 21
7423 3 29
7423 24 1
7423 34 36
7424 18 6
7424 19 9
7424 20 3
7424 21 4
7424 22 2
7425 34 2
7426 29 1
7427 18 1
7428 12 1
7429 3 1
7430 1 1
7430 2 27
7430 3 39
7430 34 54
7431 29 1
7432 9 16
7432 10 25
7432 11 24
7433 29 12
7433 30 1
7434 34 1
7435 31 1
7436 21 1
7437 8 3
7438 29 1
7439 34 1
7440 18 3
7440 19 4
7441 18 1
7441 29 1
7442 18 1
7443 3 1
7444 3 1
7444 34 1
7445 26 1
7446 4 1
7447 11 1
7448 24 1
7449 20 1
7451 38 1
7452 3 1
7453 29 4
7454 3 1
7454 5 1
7455 24 2
7455 29 1
7456 8 2
7457 26 2
7457 29 5
7458 3 1
7459 19 1
7460 4 2
7460 5 1
7460 38 1
7461 19 1
7462 8 1
7463 24 9
7464 22 1
7465 2 3
7465 3 2
7465 34 3
7466 5 4
7466 38 9
7467 18 21
7467 19 38
7467 20 13
7467 21 1
7468 14 1
7469 2 1
7469 3 1
7469 11 1
7470 18 1
7471 15 1
7472 18 25
7472 19 17
7472 20 5
7473 18 1
7474 18 1
7475 12 6
7475 14 1
7476 5 4
7476 24 3
7476 29 1
7476 38 2
7477 24 7
7478 16 1
7478 34 2
7479 24 1
7480 12 3
7481 29 1
7482 29 6
7482 30 4
7483 1 1
7483 2 7
7483 3 9
7483 12 1
7483 24 8
7483 34 8
7484 2 1
7484 22 1
7485 14 1
7486 26 5
7486 29 17
7487 18 20
7487 19 18
7487 20 9
7488 2 19
7488 3 18
7488 34 30
7489 18 16
7489 19 22
7489 20 5
7490 20 1
7490 21 19
7490 22 27
7491 31 1
7492 12 1
7493 10 1
7494 29 1
7495 34 1
7496 5 1
7496 9 1
7496 10 1
7496 11 2
7497 15 7
7497 16 3
7497 17 8
7497 21 1
7497 22 1
7498 29 1
7499 26 1
7500 31 2
7501 2 1
7502 34 1
7503 15 1
7503 16 1
7503 17 1
7504 34 1
7505 26 1
7506 34 1
7507 7 2
7507 8 7
7508 8 1
7509 24 2
7510 5 1
7510 38 1
7511 2 1
7511 3 1
7511 5 1
7511 34 3
7512 3 1
7513 11 1
7514 1 1
7514 2 9
7514 3 27
7514 34 24
7515 28 1
7516 38 1
7517 4 2
7517 5 21
7517 38 35
7518 21 1
7519 24 1
7519 26 1
7520 5 1
7521 10 1
7521 22 2
7521 24 1
7522 28 1
7523 2 1
7524 3 1
7525 1 1
7525 2 6
7525 3 10
7525 19 1
7525 28 2
7525 34 8
7526 12 1
7527 24 1
7528 31 3
7529 24 1
7530 11 1
7531 7 1
7532 38 1
7533 5 2
7533 38 1
7534 18 1
7534 29 1
7535 14 1
7536 29 1
7537 31 15
7538 7 2
7538 8 14
7539 29 1
7540 12 1
7541 19 1
7542 2 1
7543 17 1
7544 28 1
7544 29 1
7544 38 1
7545 3 2
7546 4 2
7546 5 14
7546 7 4
7546 8 2
7546 38 14
7547 34 1
7548 12 1
7549 29 15
7550 3 1
7550 4 3
7550 5 12
7550 38 7
7551 3 5
7551 24 4
7551 34 4
7552 31 3
7553 4 1
7554 4 1
7554 5 1
7554 24 1
7554 38 1
7555 26 6
7556 29 1
7557 38 1
7558 19 2
7559 10 1
7560 24 1
7561 29 3
7562 18 15
7562 19 18
7562 20 1
7563 4 12
7563 5 38
7563 38 50
7564 19 1
7565 12 33
7565 14 16
7565 20 1
7566 5 1
7567 18 1
7568 15 5
7568 16 3
7568 17 2
7569 12 1
7570 38 1
7571 24 1
7572 5 1
7573 16 1
7573 24 1
7574 25 1
7574 26 3
7574 29 4
7574 30 1
7575 21 3
7575 22 7
7576 20 1
7577 8 1
7578 7 1
7579 3 1
7580 38 1
7581 31 1
7582 18 1
7583 9 1
7583 10 1
7583 11 1
7584 5 1
7585 3 2
7586 31 1
7587 31 4
7588 14 1
7589 22 1
7590 21 1
7590 22 2
7591 12 1
7592 3 1
7593 3 4
7593 34 4
7594 2 1
7595 11 1
7596 29 1
7597 34 1
7598 2 5
7598 3 12
7598 18 1
7598 19 1
7598 34 10
7599 29 1
7600 2 1
7600 24 1
7601 3 2
7602 19 1
7602 29 7
7602 30 2
7603 5 4
7603 21 1
7603 38 10
7604 2 1
7604 3 3
7604 28 1
7604 29 4
7604 34 1
7605 21 7
7605 22 18
7606 38 1
7607 31 1
7608 5 1
7609 7 8
7609 8 8
7609 29 1
7610 38 1
7611 19 1
7612 19 1
7612 34 1
7613 5 1
7614 21 6
7614 22 14
7614 34 1
7615 28 1
7616 31 1
7617 2 7
7617 3 8
7617 34 8
7618 29 1
7619 15 5
7619 16 2
7619 17 3
7619 24 2
7620 19 3
7621 29 7
7622 18 3
7622 20 1
7623 22 1
7624 31 3
7625 4 17
7625 5 52
7625 38 51
7626 31 19
7627 4 1
7627 5 2
7627 38 1
7628 12 1
7629 38 1
7630 7 1
7631 2 3
7631 3 4
7631 34 4
7632 1 1
7632 2 1
7632 3 12
7632 34 3
7633 24 1
7634 34 1
7635 28 1
7636 38 1
7637 24 1
7638 11 1
7639 2 1
7640 2 2
7640 3 8
7640 34 6
7641 38 1
7642 8 1
7643 3 1
7643 18 7
7643 19 5
7643 20 6
7644 9 4
7644 10 9
7644 11 3
7645 2 1
7645 3 1
7645 34 4
7646 38 1
7647 3 1
7648 4 2
7648 5 12
7648 25 1
7648 38 8
7649 2 14
7649 3 28
7649 34 49
7650 31 1
7651 12 1
7652 18 1
7652 24 1
7652 34 1
7653 38 2
7654 38 1
7655 3 1
7656 22 1
7656 24 6
7657 16 1
7657 22 1
7658 5 4
7658 24 1
7658 26 1
7658 38 3
7659 29 8
7660 4 1
7661 24 1
7661 29 15
7661 30 1
7662 38 1
7663 19 1
7664 31 1
7665 34 1
7666 5 1
7667 24 1
7668 29 1
7669 28 3
7670 22 1
7671 34 1
7672 28 1
7673 3 1
7674 29 15
7675 5 1
7676 24 1
7676 29 10
7676 30 1
7677 29 1
7677 30 2
7678 3 1
7679 38 1
7680 34 1
7680 38 1
7681 24 1
7682 22 1
7683 5 1
7683 10 2
7684 2 19
7684 3 51
7684 34 34
7685 24 5
7686 10 1
7686 12 1
7686 38 1
7687 34 1
7688 5 1
7689 7 1
7690 5 1
7691 5 1
7692 11 1
7692 22 1
7693 20 1
7693 21 1
7693 22 1
7694 3 1
7695 2 1
7696 21 5
7696 22 9
7697 31 13
7698 31 6
7699 7 5
7699 8 2
7700 12 12
7700 14 2
7701 9 1
7702 29 9
7702 34 1
7703 24 10
7704 31 3
7705 24 1
7706 2 1
7706 7 9
7706 8 19
7707 31 1
7708 34 1
7709 21 11
7709 22 13
7710 18 1
7711 22 1
7711 29 2
7712 2 5
7712 3 5
7712 24 1
7712 34 5
7713 31 1
7714 3 1
7715 26 1
7716 2 4
7716 3 6
7716 34 2
7717 11 1
7717 19 1
7718 7 1
7719 28 1
7720 2 12
7720 3 17
7720 24 7
7720 34 18
7721 18 1
7722 38 1
7723 4 2
7723 5 15
7723 21 1
7723 38 8
7724 26 1
7725 19 1
7726 3 1
7727 7 4
7727 8 11
7728 34 1
7729 24 1
7730 12 1
7731 8 2
7732 22 1
7733 29 23
7734 5 1
7734 31 10
7735 3 1
7736 24 1
7737 19 1
7737 29 1
7737 31 3
7738 3 1
7739 3 2
7739 5 1
7739 7 1
7739 8 1
7739 14 1
7739 29 1
7740 14 1
7741 31 1
7742 2 16
7742 3 30
7742 34 30
7743 29 11
7743 30 3
7744 24 19
7745 26 1
7746 23 1
7746 24 3
7746 34 1
7747 3 1
7748 26 2
7749 2 1
7749 21 12
7749 22 6
7750 19 1
7751 12 1
7752 18 1
7753 2 1
7753 3 4
7753 34 2
7754 29 1
7755 7 1
7756 11 1
7757 24 8
7758 3 1
7758 8 1
7758 19 1
7758 29 1
7759 2 10
7759 3 9
7759 34 13
7760 1 1
7760 2 15
7760 3 16
7760 34 19
7761 7 4
7761 8 3
7762 15 1
7763 21 1
7764 21 1
7765 4 1
7766 26 2
7767 28 5
7768 34 1
7769 15 1
7770 12 1
7771 24 5
7772 14 1
7773 34 1
7774 3 1
7775 21 1
7775 22 5
7776 15 1
7777 4 8
7777 5 51
7777 38 41
7778 29 21
7779 31 1
7780 5 2
7781 31 8
7782 24 5
7783 3 1
7784 19 1
7785 18 21
7785 19 19
7785 20 20
7786 5 1
7787 26 1
7788 29 1
7789 30 1
7790 12 31
7790 13 2
7790 14 20
7791 18 1
7792 2 1
7793 15 15
7793 16 8
7793 17 9
7794 31 1
7795 1 3
7795 2 35
7795 3 76
7795 34 79
7796 3 1
7797 34 1
7798 18 1
7799 18 19
7799 19 16
7799 20 4
7800 9 1
7800 29 2
7801 34 1
7802 29 2
7803 16 1
7804 26 1
7805 7 1
7805 8 5
7806 15 1
7806 38 1
7807 7 1
7807 8 1
7807 10 2
7808 18 7
7808 19 9
7808 20 2
7808 34 1
7809 29 14
7809 30 3
7810 14 1
7811 18 1
7812 2 9
7812 3 14
7812 34 9
7813 7 1
7813 24 8
7813 34 1
7814 38 1
7815 2 5
7815 3 13
7815 10 1
7815 12 1
7815 31 5
7815 34 12
7816 24 1
7817 29 2
7818 14 1
7819 14 1
7820 38 1
7821 4 1
7821 5 9
7821 38 11
7822 4 2
7822 5 7
7822 38 9
7823 12 47
7823 13 2
7823 14 15
7824 12 1
7825 5 1
7826 29 7
7826 30 1
7827 29 9
7828 2 1
7828 12 1
7828 24 1
7829 24 1
7830 5 1
7831 31 2
7832 18 3
7832 19 4
7832 20 1
7833 3 1
7834 3 1
7835 3 1
7836 8 1
7836 21 1
7837 2 5
7837 3 12
7837 34 23
7838 28 1
7839 28 2
7839 29 1
7839 30 1
7840 18 1
7841 1 1
7841 2 7
7841 3 8
7841 34 10
7842 29 1
7843 4 1
7844 31 2
7845 5 1
7846 29 1
7847 20 1
7848 3 1
7849 7 1
7849 29 5
7849 30 1
7850 3 1
7851 12 1
7852 18 1
7853 38 1
7854 4 2
7854 5 9
7854 38 12
7855 20 1
7856 29 1
7857 5 1
7858 24 7
7859 24 1
7860 2 7
7860 3 7
7860 24 1
7860 34 5
7861 10 1
7861 38 1
7862 15 2
7863 20 1
7864 9 7
7864 10 8
7864 11 3
7865 28 3
7866 34 1
7866 38 2
7867 29 6
7867 30 1
7868 5 1
7868 16 1
7868 22 1
7868 29 2
7868 30 1
7869 2 4
7869 3 12
7869 23 1
7869 24 25
7869 34 7
7870 2 1
7871 22 1
7871 24 5
7871 29 1
7872 21 1
7873 12 1
7874 22 1
7875 38 1
7876 38 1
7877 10 1
7878 4 1
7878 5 7
7878 26 1
7878 38 22
7879 25 2
7880 19 1
7881 38 1
7882 34 1
7883 15 1
7883 16 2
7884 18 1
7885 12 34
7885 13 2
7885 14 23
7886 19 1
7887 24 11
7888 29 1
7889 38 1
7890 9 1
7890 10 2
7890 11 2
7891 7 2
7891 8 2
7892 14 1
7893 2 1
7893 21 15
7893 22 10
7894 28 3
7895 3 3
7895 31 1
7895 34 1
7896 29 1
7897 3 1
7897 21 6
7897 22 6
7898 2 24
7898 3 25
7898 34 34
7899 21 1
7900 12 21
7900 13 1
7900 14 11
7901 34 1
7902 4 3
7902 5 20
7902 38 27
7903 2 5
7903 3 18
7903 17 1
7903 24 1
7903 29 3
7903 34 17
7904 24 1
7905 4 2
7905 5 12
7905 38 15
7906 8 1
7907 34 1
7908 34 1
7909 12 19
7909 14 6
7909 38 1
7910 22 1
7911 29 2
7912 2 1
7913 21 1
7914 28 3
7915 31 1
7916 5 2
7916 9 1
7916 10 1
7916 11 1
7916 21 17
7916 22 19
7916 38 5
7917 38 1
7918 29 12
7919 5 2
7920 21 1
7921 21 1
7922 19 1
7922 31 1
7923 2 4
7923 3 17
7923 31 2
7923 34 25
7924 11 1
7925 12 9
7925 14 8
7925 18 1
7925 24 4
7925 29 1
7926 12 1
7926 21 17
7926 22 21
7927 5 1
7928 4 1
7929 7 1
7930 2 1
7931 15 5
7931 16 2
7931 17 1
7932 2 14
7932 3 27
7932 34 50
7933 10 1
7934 28 1
7935 34 1
7936 19 2
7937 29 1
7938 29 1
7939 3 1
7940 15 24
7940 16 25
7940 17 20
7941 31 1
7941 34 1
7942 18 12
7942 19 25
7942 20 13
7943 21 1
7944 7 1
7944 8 5
7945 28 2
7946 5 1
7947 20 1
7948 3 1
7948 7 1
7949 24 15
7950 28 1
7951 4 1
7951 5 10
7951 38 12
7952 34 2
7953 8 1
7954 1 1
7954 2 4
7954 3 10
7954 34 10
7955 24 1
7956 38 1
7957 1 1
7957 2 14
7957 3 33
7957 34 45
7958 34 1
7959 2 13
7959 3 46
7959 34 39
7960 17 1
7961 7 3
7961 8 8
7961 38 1
7962 12 22
7962 13 4
7962 14 14
7962 21 1
7962 22 1
7963 34 1
7964 10 1
7965 22 1
7966 31 1
7967 5 1
7968 7 1
7968 19 1
7969 24 1
7969 34 1
7970 28 3
7971 2 1
7971 3 2
7971 18 1
7971 34 1
7972 4 2
7972 5 10
7972 38 18
7973 24 1
7973 29 1
7974 12 1
7975 19 1
7976 4 5
7976 5 12
7976 24 1
7976 38 15
7977 24 5
7978 5 1
7978 34 1
7979 2 9
7979 3 6
7979 19 1
7979 29 5
7979 34 7
7980 3 1
7981 18 1
7982 18 1
7983 29 1
7984 18 1
7985 5 1
7986 17 1
7986 20 1
7986 34 1
7987 4 3
7987 5 8
7987 38 11
7988 24 1
7988 38 1
7989 4 1
7989 28 1
7990 24 1
7991 23 1
7991 24 34
7992 11 1
7992 26 1
7993 8 1
7994 23 1
7994 24 3
7995 19 1
7995 34 1
7996 26 2
7997 15 2
7997 16 2
7998 11 1
7999 34 1
8000 8 2
8000 11 1
8001 28 2
8002 3 1
8003 3 1
8004 2 1
8005 3 1
8005 4 1
8005 5 6
8006 9 2
8006 10 8
8006 11 5
8006 34 1
8007 24 23
8007 34 1
8008 5 1
8008 24 5
8008 31 2
8009 14 1
8010 22 1
8011 29 1
8012 5 1
8013 15 17
8013 16 20
8013 17 20
8014 21 1
8015 34 1
8016 34 1
8017 34 1
8018 5 1
8019 5 1
8020 29 1
8021 29 11
8021 30 3
8021 38 1
8022 29 2
8023 31 6
8024 5 1
8025 34 1
8026 31 3
8027 5 1
8028 31 4
8029 18 1
8029 29 1
8030 2 3
8030 3 4
8030 34 3
8031 2 1
8032 18 1
8033 24 1
8034 5 1
8035 5 1
8036 12 26
8036 13 1
8036 14 23
8037 23 1
8037 24 16
8038 2 1
8038 31 5
8039 29 1
8040 4 6
8040 5 15
8040 38 18
8041 3 2
8041 34 3
8042 18 1
8043 5 3
8043 38 2
8044 38 1
8045 29 11
8045 30 2
8046 18 1
8046 19 4
8046 20 1
8047 22 1
8048 18 1
8049 19 1
8050 20 1
8051 2 1
8051 3 9
8051 34 12
8052 24 1
8053 28 1
8054 24 4
8055 10 1
8056 2 1
8057 10 1
8058 3 1
8058 26 1
8059 10 1
8059 24 8
8060 9 20
8060 10 23
8060 11 25
8061 14 1
8061 19 1
8062 16 1
8063 29 3
8063 30 3
8064 2 1
8064 34 1
8065 18 1
8065 21 4
8065 22 5
8066 18 1
8067 21 1
8068 8 1
8068 31 1
8069 5 1
8070 12 20
8070 14 12
8070 15 1
8071 31 4
8072 8 2
8073 2 1
8073 3 1
8074 2 22
8074 3 22
8074 34 43
8075 21 1
8075 22 4
8076 38 1
8077 19 1
8078 18 1
8078 29 10
8078 30 2
8079 29 1
8080 24 11
8081 38 1
8082 2 1
8083 4 1
8084 5 2
8084 38 2
8085 8 1
8086 26 1
8086 28 9
8087 14 2
8087 18 1
8087 29 1
8088 26 1
8089 5 1
8090 2 1
8090 31 1
8091 10 1
8091 11 2
8091 19 1
8091 21 1
8091 22 3
8092 14 1
8093 18 7
8093 19 11
8093 20 2
8094 21 1
8095 34 1
8096 3 1
8096 21 1
8097 5 3
8097 38 3
8098 18 14
8098 19 18
8098 20 3
8099 20 1
8100 24 1
8101 2 1
8101 18 10
8101 19 12
8101 20 3
8102 16 1
8103 21 1
8104 29 12
8104 30 1
8105 34 1
8106 15 1
8107 19 1
8108 22 1
8109 2 2
8109 3 2
8109 29 16
8109 34 5
8110 2 1
8111 7 4
8111 8 7
8112 34 1
8113 29 1
8114 24 1
8115 7 2
8115 8 11
8116 19 1
8117 7 1
8118 1 1
8118 2 11
8118 3 26
8118 29 1
8118 34 34
8119 2 8
8119 3 11
8119 34 15
8120 31 1
8121 5 1
8122 18 1
8122 31 1
8123 24 1
8124 23 1
8125 1 1
8125 2 10
8125 3 24
8125 34 17
8126 24 1
8126 29 1
8127 3 1
8128 2 1
8129 7 1
8129 15 1
8130 7 2
8131 28 2
8131 31 17
8132 7 1
8133 18 11
8133 19 15
8133 20 9
8134 2 2
8135 24 1
8136 24 1
8137 5 21
8137 38 23
8138 3 1
8139 2 1
8140 17 1
8140 24 8
8141 4 3
8141 5 1
8141 19 1
8142 29 3
8142 34 1
8143 3 1
8144 7 12
8144 8 19
8145 18 8
8145 19 2
8145 20 4
8146 8 1
8146 29 7
8146 30 3
8147 12 3
8148 5 1
8149 8 1
8149 12 7
8149 14 5
8149 18 3
8149 19 2
8149 20 1
8150 29 20
8150 30 3
8151 3 1
8152 17 1
8152 18 1
8152 22 1
8153 28 3
8154 10 1
8155 38 2
8156 2 9
8156 3 5
8156 29 1
8156 34 6
8157 2 25
8157 3 56
8157 34 50
8158 2 12
8158 3 9
8158 18 1
8158 28 1
8158 34 31
8159 2 25
8159 3 38
8159 34 38
8160 9 14
8160 10 18
8160 11 16
8160 19 1
8161 4 1
8162 34 1
8163 12 1
8164 34 1
8165 12 1
8166 29 1
8166 31 20
8167 31 8
8168 29 8
8169 12 25
8169 13 1
8169 14 14
8170 15 3
8170 17 3
8171 34 1
8172 9 1
8173 2 1
8174 4 4
8174 5 21
8174 38 33
8175 7 1
8175 8 1
8176 9 4
8176 10 16
8176 11 11
8177 11 1
8178 16 2
8179 7 1
8180 20 1
8180 29 1
8181 31 4
8182 16 1
8183 24 2
8183 26 2
8183 29 2
8184 11 1
8184 12 1
8184 14 1
8184 22 1
8185 18 1
8186 21 1
8186 28 4
8187 34 1
8188 15 1
8189 26 2
8190 8 1
8191 21 1
8191 22 1
8192 19 1
8192 38 1
8193 8 1
8194 24 2
8195 29 4
8195 30 1
8196 24 2
8197 18 8
8197 19 8
8197 20 2
8198 9 1
8199 14 1
8200 14 1
8200 21 3
8200 22 2
8201 34 1
8202 24 1
8203 18 1
8204 10 1
8205 24 1
8206 8 1
8207 34 1
8208 19 1
8209 18 1
8210 29 9
8211 21 1
8211 24 12
8212 18 1
8213 15 7
8213 16 2
8213 17 7
8214 15 1
8215 5 1
8215 9 4
8215 10 5
8215 11 2
8216 18 6
8216 19 6
8216 20 5
8217 34 1
8219 2 3
8219 3 8
8219 26 3
8219 31 6
8219 34 12
8220 24 4
8221 24 1
8222 4 1
8223 38 1
8224 3 1
8224 12 1
8225 29 2
8226 29 1
8227 5 6
8227 21 2
8227 38 6
8228 16 1
8229 10 2
8229 11 1
8230 38 1
8231 24 7
8232 4 1
8233 34 1
8234 3 1
8234 9 1
8234 28 2
8235 29 7
8236 34 1
8237 29 1
8238 19 1
8239 18 8
8239 19 15
8239 20 6
8239 38 1
8240 38 1
8241 38 1
8242 15 1
8243 24 1
8244 29 1
8245 18 1
8246 29 3
8246 30 1
8247 12 1
8248 12 3
8248 14 2
8248 25 2
8248 26 2
8248 29 15
8248 30 2
8248 31 2
8249 22 1
8250 7 20
8250 8 31
8251 9 19
8251 10 30
8251 11 14
8252 2 2
8252 3 3
8252 28 1
8252 29 3
8252 31 4
8252 33 1
8252 34 2
8253 5 1
8254 5 1
8255 19 1
8255 20 1
8256 28 1
8257 5 1
8258 29 1
8259 12 4
8259 14 1
8260 12 1
8260 14 1
8260 38 1
8261 2 1
8262 34 1
8263 24 15
8264 1 1
8264 2 4
8264 3 8
8264 34 2
8265 18 1
8266 15 1
8267 12 15
8267 13 2
8267 14 7
8268 15 2
8268 16 1
8268 22 1
8269 7 2
8269 8 1
8270 34 1
8271 5 1
8272 5 1
8273 31 4
8274 4 4
8274 5 17
8274 29 8
8274 30 1
8274 34 3
8274 38 18
8275 5 1
8276 31 1
8277 24 1
8278 12 2
8278 14 2
8279 7 1
8280 3 1
8281 31 5
8282 29 18
8283 26 3
8283 31 1
8284 15 13
8284 16 8
8284 17 14
8285 8 1
8286 29 1
8287 29 13
8287 30 1
8288 14 1
8289 29 4
8290 2 1
8290 3 3
8291 3 1
8292 29 7
8293 7 1
8293 8 12
8294 18 1
8294 24 2
8295 38 1
8296 3 1
8297 24 1
8298 19 1
8299 31 6
8300 3 1
8300 14 1
8301 21 5
8301 22 5
8302 26 2
8303 26 1
8304 9 4
8304 10 11
8304 11 13
8305 34 1
8306 24 3
8307 38 1
8308 3 1
8309 29 2
8310 12 1
8311 7 2
8311 12 1
8311 31 5
8311 34 1
8312 38 1
8313 3 1
8314 29 11
8314 30 3
8315 29 1
8316 2 1
8316 3 9
8316 34 6
8317 28 2
8318 21 1
8318 34 1
8319 38 1
8320 18 1
8321 4 12
8321 5 26
8321 38 23
8322 24 1
8323 7 1
8324 12 1
8325 29 1
8326 1 1
8326 2 10
8326 3 24
8326 20 1
8326 34 29
8326 38 1
8327 34 1
8328 12 1
8328 14 1
8329 29 1
8329 31 10
8330 15 1
8330 21 20
8330 22 19
8331 5 1
8332 9 3
8332 10 3
8332 11 4
8332 19 1
8332 29 11
8333 24 2
8334 38 1
8335 4 1
8336 29 1
8337 4 9
8337 5 8
8337 38 24
8338 3 1
8339 3 1
8339 4 1
8339 5 3
8339 38 2
8340 3 1
8341 4 3
8341 5 11
8341 38 18
8342 19 1
8342 28 2
8343 15 1
8344 5 1
8345 5 6
8345 38 7
8346 15 1
8346 17 2
8347 31 1
8348 21 1
8349 3 1
8350 19 1
8351 3 1
8352 19 1
8353 5 1
8354 3 1
8355 10 1
8355 11 3
8355 24 1
8356 8 1
8356 29 1
8357 18 1
8357 19 1
8358 11 1
8359 20 1
8360 10 1
8361 29 1
8362 19 1
8363 2 3
8363 3 5
8363 34 3
8364 7 3
8364 8 1
8364 19 1
8365 16 1
8366 31 1
8367 26 1
8368 4 12
8368 5 43
8368 34 1
8368 38 55
8369 38 1
8370 5 1
8371 16 1
8371 17 1
8372 2 1
8373 31 1
8374 4 1
8375 34 1
8376 3 1
8376 34 1
8377 21 1
8377 29 3
8378 19 1
8379 2 1
8379 29 1
8380 34 2
8381 19 1
8382 12 1
8383 7 1
8383 29 3
8384 24 8
8385 24 1
8386 4 1
8387 3 1
8388 2 1
8389 3 1
8390 5 1
8391 24 1
8392 14 1
8392 24 10
8393 2 1
8393 34 1
8394 24 1
8395 24 1
8396 19 1
8396 24 4
8396 31 4
8397 38 1
8398 19 1
8399 4 2
8399 5 9
8399 16 1
8399 38 13
8400 34 3
8401 2 1
8401 24 1
8401 26 1
8401 29 2
8402 5 1
8402 29 14
8402 30 1
8403 38 1
8404 34 1
8405 7 1
8406 29 1
8407 7 5
8407 8 4
8407 29 2
8408 29 2
8408 34 1
8409 5 1
8410 8 1
8411 4 3
8411 5 12
8411 18 1
8411 38 12
8412 2 8
8412 3 12
8412 24 5
8412 34 9
8413 24 1
8414 34 1
8415 29 1
8416 2 1
8417 2 1
8418 18 1
8418 21 1
8419 3 1
8420 8 1
8421 5 1
8422 19 1
8423 2 1
8423 3 1
8423 18 1
8424 9 1
8425 24 5
8425 28 1
8426 5 1
8427 34 1
8428 18 1
8429 3 1
8429 12 1
8429 14 1
8430 24 1
8431 3 1
8432 28 3
8432 34 1
8433 18 12
8433 19 15
8433 20 9
8434 38 1
8435 12 1
8435 20 1
8435 31 6
8436 29 2
8437 2 1
8437 3 1
8437 34 1
8438 5 8
8438 38 6
8439 5 1
8440 29 1
8441 14 1
8441 17 1
8442 11 1
8443 34 1
8444 2 4
8444 3 2
8444 31 3
8444 34 2
8445 3 1
8446 5 1
8447 3 1
8447 8 1
8447 15 2
8447 34 1
8448 24 1
8449 34 1
8450 38 2
8451 14 1
8452 2 4
8452 3 7
8452 5 1
8452 31 4
8452 34 11
8453 29 1
8454 3 1
8455 29 19
8455 30 1
8456 29 3
8456 30 1
8457 28 1
8458 28 1
8459 14 1
8460 12 1
8460 18 1
8460 28 3
8461 5 1
8462 12 1
8462 14 3
8463 2 1
8464 11 1
8464 15 1
8465 2 1
8466 18 4
8466 19 4
8466 20 1
8467 26 1
8468 21 1
8469 34 1
8470 24 1
8471 24 1
8472 5 2
8473 4 1
8474 2 1
8475 12 1
8475 21 1
8475 25 1
8475 26 3
8475 31 3
8476 18 9
8476 19 8
8476 20 2
8477 24 4
8478 18 1
8478 19 1
8479 5 1
8479 38 2
8480 4 8
8480 5 33
8480 38 39
8481 8 1
8482 34 1
8483 24 8
8484 3 1
8484 5 1
8484 34 1
8485 5 1
8486 15 1
8486 16 1
8486 17 1
8487 24 18
8487 28 1
8488 24 2
8488 31 1
8489 10 1
8489 18 1
8489 19 3
8490 21 10
8490 22 6
8491 29 2
8492 18 1
8493 5 1
8493 28 6
8494 38 1
8495 34 1
8496 21 4
8496 22 2
8497 24 15
8497 28 1
8497 34 1
8498 2 17
8498 3 25
8498 34 24
8499 38 1
8500 38 1
8501 29 3
8501 30 1
8502 19 1
8503 1 1
8503 2 14
8503 3 28
8503 10 1
8503 24 1
8503 34 36
8504 2 1
8504 7 1
8504 12 2
8504 20 2
8504 38 1
8505 19 1
8506 4 3
8506 5 18
8506 38 20
8507 31 6
8508 24 2
8509 5 2
8509 12 36
8509 13 3
8509 14 11
8509 38 1
8510 38 1
8511 19 1
8512 3 1
8513 3 1
8513 24 4
8514 3 1
8515 34 1
8516 18 2
8517 12 25
8517 13 1
8517 14 21
8518 29 1
8519 12 1
8520 29 20
8520 30 1
8520 34 1
8521 24 1
8522 3 1
8522 28 1
8522 29 3
8522 30 1
8522 38 1
8523 19 1
8523 20 1
8524 29 4
8525 15 6
8525 16 2
8525 17 6
8526 11 1
8527 3 1
8528 3 1
8529 2 1
8530 11 1
8531 17 1
8532 20 1
8532 25 1
8533 2 1
8534 29 1
8535 12 1
8536 21 1
8536 22 1
8537 18 1
8538 12 1
8539 24 3
8540 38 1
8541 29 1
8542 7 2
8542 8 5
8542 12 1
8542 14 1
8542 20 1
8543 5 1
8543 18 5
8543 19 7
8543 20 2
8544 34 1
8544 38 1
8545 38 1
8546 10 1
8547 29 1
8547 38 1
8548 29 10
8549 12 15
8549 14 7
8549 19 1
8549 38 1
8550 22 1
8551 38 1
8552 5 1
8553 18 3
8553 19 1
8553 20 1
8554 2 1
8554 4 2
8554 5 3
8554 19 1
8554 38 6
8555 21 15
8555 22 9
8556 18 8
8556 19 8
8556 20 2
8557 2 1
8558 4 1
8558 38 1
8559 31 1
8560 24 1
8561 2 1
8562 19 1
8563 2 1
8563 34 1
8564 3 1
8565 24 23
8565 28 3
8566 3 1
8566 28 1
8567 2 1
8568 2 4
8568 3 2
8568 34 2
8569 5 1
8569 24 2
8569 38 1
8570 3 1
8571 3 1
8572 21 2
8572 22 2
8572 34 1
8573 15 1
8574 22 1
8575 29 12
8575 30 1
8576 21 1
8577 18 1
8577 29 3
8578 3 1
8579 2 1
8580 29 2
8580 30 2
8581 7 1
8582 29 18
8582 30 1
8583 22 1
8583 34 1
8584 29 39
8585 18 3
8586 30 1
8587 15 1
8588 29 1
8588 38 1
8589 3 1
8590 38 1
8591 2 1
8591 3 5
8591 34 3
8592 5 2
8593 10 1
8593 14 1
8594 7 12
8594 8 20
8595 19 1
8596 34 1
8597 5 1
8597 20 1
8597 21 1
8597 28 1
8598 14 1
8599 22 1
8600 4 1
8600 5 4
8600 38 10
8601 22 1
8601 28 1
8602 34 1
8603 8 1
8604 19 1
8605 8 2
8606 3 1
8607 21 1
8607 34 1
8608 18 1
8609 21 1
8610 19 2
8611 10 1
8612 28 2
8613 29 3
8614 21 2
8614 22 1
8615 34 1
8616 16 1
8617 24 1
8618 14 1
8619 2 1
8620 5 4
8620 28 3
8620 38 7
8621 4 1
8621 5 12
8621 38 6
8622 5 1
8623 15 1
8624 34 1
8625 21 1
8626 12 4
8626 14 3
8627 5 1
8628 7 1
8629 12 1
8630 14 1
8631 19 1
8631 24 11
8632 24 1
8633 31 6
8634 5 1
8635 3 1
8635 5 1
8635 34 2
8636 29 1
8637 31 2
8638 2 10
8638 3 21
8638 5 1
8638 34 18
8639 1 1
8639 2 5
8639 3 5
8639 34 6
8640 24 1
8641 5 1
8642 29 1
8643 5 1
8644 24 1
8645 24 2
8647 15 1
8648 2 4
8648 3 27
8648 34 44
8649 3 1
8650 24 29
8651 11 1
8651 17 2
8652 5 1
8652 24 1
8653 2 22
8653 3 32
8653 34 21
8654 18 29
8654 19 34
8654 20 10
8655 3 1
8655 28 1
8655 34 1
8656 3 1
8657 21 1
8658 17 1
8659 23 1
8660 10 1
8661 4 1
8661 21 1
8661 24 1
8661 28 2
8661 34 1
8662 3 1
8662 34 1
8663 34 1
8664 34 1
8665 28 4
8666 24 11
8667 15 2
8668 31 1
8669 24 1
8670 8 1
8670 9 4
8670 10 1
8670 11 1
8670 19 2
8671 18 1
8672 12 2
8673 3 1
8673 15 4
8674 5 1
8675 29 4
8676 2 1
8676 3 2
8676 34 3
8677 29 1
8678 7 1
8678 22 2
8679 21 8
8679 22 3
8680 18 24
8680 19 17
8680 20 8
8681 14 1
8682 27 1
8682 28 6
8683 20 1
8684 9 1
8684 10 8
8684 11 6
8684 24 1
8685 19 1
8686 31 1
8687 5 1
8687 29 24
8687 30 1
8687 38 1
8688 15 8
8688 16 5
8688 17 3
8688 18 19
8688 19 25
8688 20 9
8689 19 9
8689 20 1
8690 18 5
8690 19 6
8690 20 3
8691 10 1
8692 21 1
8693 3 1
8693 15 17
8693 16 12
8693 17 19
8694 15 1
8694 17 3
8695 17 1
8696 34 1
8697 5 1
8698 21 7
8698 22 1
8699 10 1
8699 29 1
8700 5 13
8700 38 13
8701 5 1
8702 21 1
8703 22 1
8704 2 1
8704 38 1
8705 11 1
8706 38 1
8707 5 1
8708 9 1
8708 30 1
8708 38 1
8709 22 1
8710 11 1
8711 29 1
8711 34 2
8712 7 4
8712 8 7
8713 34 1
8714 34 1
8715 31 15
8716 3 1
8716 29 3
8717 20 1
8717 24 5
8718 2 2
8718 3 6
8718 34 9
8719 34 1
8720 15 1
8721 24 1
8722 10 1
8723 29 1
8724 31 1
8725 24 1
8726 9 14
8726 10 19
8726 11 17
8727 29 1
8728 9 5
8728 10 3
8728 11 9
8729 29 1
8729 34 1
8730 3 1
8730 28 1
8730 34 2
8731 38 1
8732 24 2
8733 19 3
8734 12 1
8734 19 1
8735 31 4
8736 31 1
8737 34 1
8738 29 1
8739 29 1
8740 26 1
8741 7 2
8741 8 6
8742 29 3
8743 34 1
8744 22 1
8745 3 1
8746 19 1
8747 29 7
8748 2 1
8748 29 1
8749 22 1
8750 24 8
8750 28 1
8751 21 5
8751 22 9
8752 29 1
8753 8 1
8753 9 6
8753 10 1
8753 11 3
8753 26 1
8754 17 1
8755 3 1
8756 3 1
8757 24 1
8757 29 1
8757 30 1
8758 17 1
8758 18 1
8758 34 1
8759 24 4
8760 10 1
8760 31 1
8761 3 1
8762 18 1
8762 38 1
8763 23 1
8763 24 26
8764 11 1
8764 29 24
8764 30 3
8765 10 1
8766 12 1
8767 15 2
8767 16 1
8767 17 2
8768 18 1
8768 19 2
8769 34 1
8770 34 1
8771 3 1
8772 34 1
8773 12 1
8774 18 5
8774 19 4
8774 20 6
8775 4 4
8775 5 15
8775 38 17
8776 3 1
8776 21 17
8776 22 8
8777 29 9
8777 30 1
8778 2 1
8778 21 5
8778 22 3
8779 22 1
8780 8 5
8781 2 7
8781 3 9
8781 34 24
8782 24 43
8783 29 1
8784 3 3
8784 34 3
8785 21 25
8785 22 22
8786 3 1
8787 15 1
8788 1 1
8788 2 13
8788 3 12
8788 34 21
8789 21 1
8790 5 4
8790 38 4
8791 5 1
8792 4 9
8792 5 48
8792 38 42
8793 31 1
8794 30 1
8795 12 3
8795 14 1
8796 12 6
8796 13 1
8796 14 4
8796 21 8
8796 22 10
8797 3 1
8798 2 2
8798 3 4
8798 15 1
8798 26 2
8798 31 1
8798 34 5
8799 5 1
8800 2 1
8801 24 6
8802 24 2
8803 38 1
8804 3 1
8805 34 1
8806 15 1
8807 24 1
8808 31 5
8810 38 1
8811 3 1
8811 22 1
8811 34 1
8812 4 1
8812 5 1
8812 38 1
8813 21 2
8814 18 1
8815 2 1
8815 7 4
8815 8 6
8816 18 1
8817 24 1
8818 24 22
8819 2 17
8819 3 28
8819 34 34
8820 19 1
8821 31 1
8822 12 26
8822 14 8
8823 4 2
8823 5 10
8823 12 8
8823 13 1
8823 14 5
8823 38 7
8824 28 1
8825 5 1
8826 21 1
8827 24 9
8828 5 1
8829 10 2
8829 11 1
8829 21 1
8830 2 1
8830 4 1
8830 11 1
8830 34 3
8831 5 1
8832 31 1
8833 5 1
8833 14 1
8834 9 4
8834 10 10
8834 11 8
8834 31 1
8835 18 6
8835 19 13
8835 20 14
8836 8 1
8837 21 2
8838 34 1
8839 3 1
8839 12 2
8839 22 1
8840 3 2
8841 12 1
8842 31 8
8842 38 1
8843 3 1
8844 18 1
8844 19 1
8844 20 2
8845 3 1
8846 2 10
8846 3 8
8846 26 6
8846 34 18
8847 34 1
8848 2 1
8849 21 1
8849 24 6
8849 38 1
8850 12 1
8850 18 3
8850 19 3
8850 20 1
8851 3 1
8851 24 8
8852 12 22
8852 13 3
8852 14 14
8853 15 1
8854 29 8
8855 3 1
8856 2 1
8857 24 1
8857 28 4
8858 16 2
8858 34 1
8859 2 1
8860 34 1
8861 3 1
8862 5 1
8863 12 25
8863 14 12
8863 34 2
8864 34 1
8865 9 1
8865 10 3
8865 15 1
8865 16 1
8865 17 1
8866 14 1
8867 3 1
8868 23 1
8868 24 15
8868 34 1
8869 34 1
8870 29 1
8871 24 1
8872 29 9
8872 30 3
8873 19 1
8874 3 1
8875 18 33
8875 19 33
8875 20 13
8875 24 1
8875 31 8
8875 32 1
8876 12 11
8876 14 6
8877 26 1
8878 12 6
8878 14 2
8878 34 1
8879 5 3
8879 34 1
8879 38 14
8880 24 1
8881 2 1
8882 2 1
8883 19 1
8884 19 1
8885 18 24
8885 19 25
8885 20 9
8886 38 1
8887 5 1
8887 18 1
8887 19 1
8888 11 1
8888 19 1
8889 21 32
8889 22 32
8889 31 1
8890 29 2
8891 7 4
8891 8 6
8892 17 1
8892 18 1
8892 20 1
8893 28 1
8894 2 1
8894 24 1
8895 18 1
8895 19 4
8896 24 1
8896 28 3
8896 38 2
8897 19 1
8898 22 1
8899 15 2
8899 16 1
8899 19 1
8900 18 1
8901 21 3
8901 22 3
8902 12 5
8902 14 1
8903 11 1
8904 3 1
8904 34 1
8905 5 3
8905 38 3
8906 4 2
8906 5 14
8906 38 9
8907 28 2
8907 34 1
8908 29 1
8909 24 1
8910 28 5
8910 34 1
8911 15 1
8912 29 2
8912 30 1
8913 24 1
8914 24 1
8915 28 1
8916 3 1
8917 29 43
8917 30 1
8918 2 9
8918 3 12
8918 31 3
8918 34 17
8919 19 1
8919 24 1
8920 38 1
8921 38 1
8922 11 1
8922 18 1
8923 22 1
8924 12 4
8924 14 6
8925 2 1
8926 5 1
8927 21 2
8927 22 2
8928 24 5
8929 34 1
8930 3 1
8931 1 2
8931 2 17
8931 3 24
8931 34 29
8932 5 1
8933 22 1
8934 7 1
8934 8 1
8935 18 1
8935 19 6
8935 20 1
8936 24 1
8937 14 1
8938 2 1
8938 5 7
8938 14 2
8938 38 12
8939 29 10
8940 3 1
8941 1 1
8941 2 14
8941 3 12
8941 34 24
8942 24 1
8943 5 1
8944 15 2
8944 16 4
8944 17 2
8944 34 1
8945 8 1
8946 4 12
8946 5 52
8946 38 52
8947 24 9
8948 34 1
8949 3 1
8949 31 1
8950 31 1
8951 24 7
8952 3 1
8953 3 1
8954 28 1
8955 38 1
8956 2 11
8956 3 23
8956 19 2
8956 29 10
8956 30 3
8956 34 18
8957 34 1
8958 1 2
8958 2 26
8958 3 30
8958 34 39
8959 22 1
8960 18 1
8960 29 10
8960 30 1
8961 16 1
8961 24 1
8962 31 4
8963 24 2
8964 1 2
8964 2 12
8964 3 15
8964 34 9
8965 29 8
8966 2 1
8966 24 5
8966 34 3
8967 2 1
8968 18 1
8969 2 21
8969 3 42
8969 34 51
8970 3 1
8971 3 1
8972 3 1
8973 2 1
8973 28 8
8974 2 1
8975 2 1
8976 19 4
8976 20 2
8976 34 1
8977 8 1
8977 19 1
8977 34 2
8978 18 5
8978 19 8
8978 20 4
8978 34 1
8978 38 1
8979 15 1
8980 25 1
8980 26 2
8981 18 13
8981 19 8
8981 20 11
8982 14 1
8983 24 2
8983 29 1
8984 28 2
8985 21 1
8986 5 1
8986 22 2
8987 17 1
8988 3 1
8988 12 22
8988 14 9
8989 9 1
8990 24 1
8991 29 1
8992 26 3
8992 29 1
8993 12 30
8993 13 1
8993 14 19
8994 12 30
8994 14 13
8995 26 2
8996 5 1
8997 4 1
8997 24 16
8997 31 12
8997 32 1
8998 24 1
8999 10 1
8999 31 4
9000 12 1
9001 5 1
9002 1 1
9002 2 6
9002 3 22
9002 34 24
9003 12 1
9004 19 2
9005 38 1
9006 2 1
9007 3 1
9008 34 1
9009 14 1
9010 29 24
9010 30 3
9011 2 1
9012 5 1
9013 28 4
9014 21 1
9015 24 1
9016 31 1
9017 1 2
9017 2 13
9017 3 16
9017 29 5
9017 34 21
9018 34 1
9019 24 11
9020 1 1
9021 5 1
9021 38 1
9022 7 1
9023 19 2
9024 24 18
9025 22 2
9026 5 1
9027 24 3
9028 5 1
9028 13 1
9028 31 13
9029 28 1
9029 29 21
9029 30 4
9030 28 1
9031 29 1
9032 3 1
9033 31 3
9034 21 1
9034 22 1
9034 38 1
9035 24 1
9036 12 5
9036 14 3
9037 34 1
9038 12 3
9039 29 1
9040 2 4
9040 3 3
9040 34 2
9041 18 1
9042 15 1
9043 3 1
9044 29 8
9044 30 2
9045 5 1
9046 3 1
9047 18 1
9047 19 1
9047 20 1
9048 24 1
9049 12 1
9049 21 1
9049 26 2
9050 7 1
9050 8 2
9051 24 5
9052 4 1
9052 5 1
9052 19 36
9052 20 15
9052 38 2
9053 19 1
9053 28 5
9054 34 1
9055 34 1
9056 5 1
9057 2 1
9057 24 6
9058 18 1
9058 28 1
9058 31 1
9059 31 1
9060 2 8
9060 3 18
9060 34 21
9061 3 1
9062 3 1
9063 18 1
9064 24 1
9065 9 3
9065 10 5
9065 11 3
9065 19 1
9066 2 1
9066 3 7
9066 34 9
9067 2 2
9067 3 4
9067 21 14
9067 22 13
9067 24 5
9068 18 26
9068 19 32
9068 20 12
9069 7 14
9069 8 22
9070 3 1
9071 16 1
9071 17 1
9071 20 1
9072 7 1
9073 2 2
9074 22 1
9075 18 8
9075 19 14
9075 20 1
9076 2 1
9077 3 1
9077 34 1
9078 29 1
9079 8 1
9080 19 1
9080 24 2
9081 18 49
9081 19 43
9081 20 11
9082 18 1
9083 16 2
9084 18 1
9085 24 4
9086 21 1
9087 10 1
9088 2 8
9088 3 6
9088 34 19
9089 5 1
9090 4 1
9090 38 1
9091 3 1
9092 3 1
9093 2 3
9093 3 5
9093 24 1
9093 34 17
9094 34 1
9095 34 1
9096 2 1
9096 29 5
9097 38 1
9098 3 1
9099 3 2
9100 2 1
9101 24 8
9101 34 1
9102 34 1
9103 15 1
9104 34 1
9105 18 1
9105 31 1
9106 19 1
9107 10 1
9107 21 1
9108 31 2
9109 34 1
9110 2 1
9111 31 8
9112 4 1
9112 5 4
9112 38 7
9113 38 1
9114 2 3
9114 3 10
9114 22 1
9114 31 1
9114 33 1
9114 34 12
9115 5 1
9115 21 1
9115 34 1
9116 2 2
9116 3 1
9116 29 27
9116 30 3
9117 11 1
9117 12 7
9117 14 1
9118 29 1
9119 4 4
9119 5 16
9119 38 13
9120 26 7
9121 18 3
9121 19 2
9122 12 1
9123 4 1
9124 12 1
9125 29 2
9126 7 1
9126 8 3
9127 7 6
9127 8 6
9128 12 32
9128 14 22
9128 34 1
9129 18 1
9129 19 1
9129 20 3
9130 34 1
9131 38 1
9132 21 1
9133 31 2
9134 24 1
9135 2 1
9136 24 1
9137 24 4
9138 3 1
9139 5 1
9140 18 1
9141 5 1
9141 24 7
9142 7 1
9143 12 37
9143 14 17
9144 7 1
9145 26 1
9146 34 1
9147 4 7
9147 5 25
9147 38 32
9148 18 16
9148 19 10
9148 20 6
9149 5 1
9149 38 3
9150 15 7
9150 16 5
9150 17 6
9151 12 1
9151 14 2
9152 21 2
9152 22 7
9153 38 1
9154 26 1
9155 29 18
9155 30 2
9156 2 5
9156 3 15
9156 24 3
9156 34 24
9157 3 2
9157 34 1
9158 3 1
9159 34 1
9160 4 11
9160 5 34
9160 18 1
9160 38 47
9161 34 1
9162 3 1
9162 12 4
9162 14 3
9163 12 37
9163 14 24
9164 38 1
9165 5 1
9166 22 1
9167 21 1
9168 2 1
9168 24 14
9169 22 1
9170 4 1
9171 12 1
9172 2 1
9173 2 14
9173 3 25
9173 34 28
9174 29 3
9175 3 1
9176 28 1
9177 22 1
9178 4 3
9178 5 14
9178 38 16
9179 2 1
9179 3 3
9179 34 4
9180 29 1
9181 10 1
9181 21 6
9181 22 1
9182 3 1
9183 10 2
9184 28 9
9185 19 1
9185 31 5
9186 24 1
9187 4 2
9187 5 11
9187 24 2
9187 38 14
9188 5 1
9188 24 1
9188 26 2
9189 19 1
9190 29 1
9191 5 1
9191 38 1
9192 29 23
9192 30 3
9193 20 1
9194 34 1
9195 24 14
9196 34 1
9197 24 1
9198 34 1
9199 2 1
9199 28 3
9200 12 1
9201 9 1
9202 4 1
9203 38 1
9204 29 7
9204 30 2
9205 38 1
9206 2 1
9207 22 1
9208 29 1
9209 3 1
9209 30 1
9210 38 1
9211 24 1
9212 24 1
9213 15 2
9213 16 2
9213 17 2
9214 18 3
9214 19 1
9215 26 1
9215 28 1
9215 31 1
9216 5 1
9217 2 1
9218 18 1
9219 29 3
9220 4 5
9220 5 7
9220 38 7
9221 18 3
9221 19 7
9221 20 1
9222 16 1
9223 29 1
9224 34 1
9225 31 3
9226 10 1
9226 24 18
9227 31 2
9228 2 2
9228 14 1
9229 5 1
9229 18 1
9229 21 1
9229 24 3
9229 34 1
9230 31 2
9231 3 1
9231 19 1
9232 15 1
9233 19 1
9233 29 2
9234 5 1
9235 21 1
9236 24 1
9236 28 1
9237 7 2
9237 8 4
9238 38 1
9239 2 1
9240 18 1
9240 28 2
9241 3 1
9242 21 1
9243 31 2
9244 34 1
9245 24 18
9246 29 6
9246 30 1
9247 4 1
9248 34 1
9249 30 1
9250 15 1
9250 16 1
9250 17 2
9251 24 1
9252 31 1
9253 11 1
9254 2 9
9254 3 22
9254 29 9
9254 34 19
9255 18 1
9255 19 3
9255 20 2
9256 31 1
9257 11 1
9258 7 2
9258 8 5
9259 21 1
9259 26 1
9260 19 1
9261 3 1
9261 34 2
9262 34 1
9263 5 1
9263 14 1
9264 38 1
9265 38 1
9266 2 3
9266 34 3
9267 7 1
9267 14 1
9268 24 8
9269 29 12
9270 3 1
9271 12 2
9271 14 1
9272 31 5
9273 31 3
9274 19 1
9275 14 1
9276 17 1
9276 24 1
9277 29 5
9277 30 1
9278 5 1
9279 22 2
9280 29 1
9281 34 2
9282 24 5
9283 7 1
9284 20 1
9285 29 7
9285 30 1
9286 5 1
9287 34 1
9288 17 1
9289 3 1
9289 15 2
9289 16 2
9289 17 3
9290 34 1
9291 9 8
9291 10 16
9292 5 1
9293 5 1
9293 38 1
9294 7 17
9294 8 20
9295 14 1
9296 2 1
9296 29 1
9297 18 1
9298 5 1
9299 27 1
9299 28 14
9300 29 5
9301 29 14
9302 34 1
9303 24 1
9304 7 1
9304 24 1
9305 15 17
9305 16 10
9305 17 19
9305 38 1
9306 2 1
9306 9 5
9306 10 4
9306 11 2
9307 5 9
9307 38 6
9308 18 1
9309 34 1
9310 3 1
9311 18 1
9311 19 1
9312 3 1
9314 31 1
9315 31 1
9316 12 2
9316 14 2
9317 2 6
9317 3 8
9317 31 5
9317 34 16
9318 31 12
9319 5 1
9320 5 1
9321 2 1
9321 34 1
9322 18 1
9322 19 1
9322 24 1
9323 34 1
9324 38 1
9325 14 1
9326 3 1
9326 15 1
9327 20 1
9328 25 1
9328 26 1
9328 28 1
9329 3 1
9330 21 2
9330 22 2
9331 4 1
9331 24 4
9331 29 1
9332 5 1
9332 15 1
9332 19 1
9333 3 1
9334 15 3
9334 16 2
9334 17 4
9335 22 2
9336 3 1
9336 5 1
9336 24 2
9337 19 1
9338 34 1
9339 24 10
9340 12 1
9340 29 1
9341 2 1
9342 15 2
9342 17 1
9343 21 1
9344 21 25
9344 22 21
9345 12 1
9345 24 3
9346 5 7
9346 38 4
9347 5 1
9348 24 9
9349 21 1
9350 23 1
9350 24 3
9351 34 1
9352 19 1
9353 8 1
9354 2 2
9354 3 4
9354 34 3
9355 16 1
9356 10 3
9356 11 3
9356 38 1
9357 31 6
9358 26 2
9358 29 1
9358 34 1
9359 4 10
9359 5 54
9359 18 1
9359 38 51
9360 21 1
9361 31 1
9362 2 6
9362 3 12
9362 21 1
9362 24 3
9362 34 11
9363 24 1
9364 5 1
9365 18 5
9365 19 8
9365 20 4
9366 14 1
9367 24 1
9368 2 1
9368 28 1
9369 3 1
9370 15 1
9371 5 1
9371 19 1
9372 9 1
9372 10 1
9372 11 1
9373 5 1
9374 8 1
9375 21 1
9375 31 4
9376 9 5
9376 10 3
9376 11 1
9377 2 11
9377 3 28
9377 34 26
9378 24 1
9378 31 2
9379 34 1
9380 8 2
9381 34 1
9382 4 17
9382 5 72
9382 7 1
9382 38 80
9383 29 2
9384 5 1
9385 5 1
9385 8 1
9385 31 12
9385 34 1
9386 21 1
9387 19 1
9388 22 1
9388 29 4
9388 38 1
9389 34 2
9390 18 1
9391 8 1
9391 24 5
9392 5 1
9393 4 9
9393 5 29
9393 38 40
9394 18 1
9395 34 1
9396 2 2
9396 3 5
9396 34 5
9397 17 1
9398 3 5
9398 24 5
9398 28 1
9398 34 3
9399 3 1
9399 5 1
9399 38 1
9400 3 1
9401 34 1
9402 8 1
9403 2 1
9404 7 1
9405 2 4
9405 3 16
9405 34 12
9406 3 1
9406 38 2
9407 24 12
9407 25 1
9407 26 8
9407 29 6
9407 30 1
9408 17 3
9409 3 1
9410 5 4
9410 18 1
9410 38 8
9411 5 1
9412 20 1
9413 31 1
9414 26 1
9415 9 8
9415 10 6
9415 11 5
9416 19 1
9417 24 3
9418 29 1
9419 19 1
9420 24 6
9420 28 2
9421 2 1
9422 4 1
9423 3 1
9423 11 1
9424 7 5
9424 8 16
9425 3 1
9425 21 23
9425 22 15
9426 22 1
9427 5 1
9428 22 1
9429 26 4
9430 31 6
9431 38 1
9432 5 1
9432 31 11
9433 2 1
9433 29 2
9434 5 1
9435 31 10
9436 31 1
9437 31 1
9438 12 1
9439 3 1
9440 38 1
9441 24 2
9442 31 3
9443 18 23
9443 19 27
9443 20 12
9444 4 2
9444 5 9
9444 38 10
9445 2 1
9446 29 12
9446 30 3
9447 2 1
9447 19 1
9448 31 1
9449 31 1
9450 20 1
9451 2 3
9451 3 2
9451 34 3
9452 11 1
9453 24 13
9454 3 1
9454 5 1
9454 9 1
9454 19 1
9454 21 2
9455 19 1
9456 29 1
9457 28 1
9457 31 2
9458 29 1
9459 18 1
9460 2 1
9460 25 1
9461 34 1
9462 38 1
9463 22 1
9463 24 7
9464 9 1
9465 2 6
9465 3 10
9465 34 14
9466 24 7
9467 29 1
9467 30 1
9468 24 1
9469 5 1
9470 38 1
9471 29 2
9472 17 1
9472 34 1
9473 2 12
9473 3 21
9473 29 1
9473 34 26
9474 12 1
9474 19 1
9475 29 1
9476 29 1
9477 24 1
9478 34 3
9479 1 1
9479 2 14
9479 3 40
9479 34 57
9480 2 1
9480 29 10
9480 30 1
9481 34 1
9482 5 1
9482 34 1
9483 34 1
9484 12 3
9484 14 1
9485 3 1
9486 5 10
9486 19 1
9486 38 10
9487 29 7
9488 2 8
9488 3 12
9488 34 13
9489 29 1
9490 7 1
9491 24 2
9492 19 1
9493 24 5
9493 25 1
9493 26 6
9494 24 13
9495 29 1
9496 28 1
9496 29 5
9497 3 1
9498 4 1
9498 5 2
9499 5 1
9500 22 1
9501 5 1
9502 38 1
9503 5 1
9503 21 1
9503 38 1
9504 21 2
9504 29 9
9505 34 1
9506 5 1
9506 28 1
9506 38 2
9507 25 1
9507 26 3
9508 5 1
9509 19 1
9509 31 1
9509 34 1
9510 15 1
9511 5 1
9512 29 2
9512 30 2
9513 2 1
9513 21 1
9513 24 7
9514 3 1
9515 2 13
9515 3 19
9515 34 21
9516 34 1
9517 7 1
9517 8 1
9518 24 1
9519 29 1
9520 3 1
9521 38 1
9522 31 4
9522 33 1
9523 29 9
9524 15 1
9525 5 1
9526 31 5
9527 11 1
9528 11 1
9529 5 1
9530 34 1
9531 5 1
9531 24 7
9532 29 3
9532 34 1
9533 21 1
9534 31 1
9535 2 5
9535 3 7
9535 24 7
9535 34 16
9536 30 1
9537 11 1
9538 24 1
9539 9 9
9539 10 16
9539 11 17
9540 9 1
9541 2 1
9541 3 2
9541 34 1
9542 21 1
9542 22 3
9543 2 5
9543 3 22
9543 34 19
9544 5 1
9545 4 9
9545 5 12
9545 38 30
9546 29 26
9546 30 1
9547 18 1
9548 29 10
9549 4 1
9550 4 1
9550 5 6
9550 24 2
9550 38 6
9551 19 1
9552 28 2
9553 29 7
9554 38 1
9555 5 1
9556 24 10
9557 19 1
9557 20 1
9558 9 1
9559 22 1
9560 28 1
9561 3 1
9562 5 1
9563 15 20
9563 16 12
9563 17 12
9564 34 1
9565 24 2
9565 26 1
9565 29 5
9565 30 1
9566 3 1
9567 4 9
9567 5 35
9567 15 1
9567 24 1
9567 38 40
9568 12 19
9568 14 7
9569 31 1
9570 18 1
9571 4 3
9571 5 4
9571 38 3
9572 12 1
9573 19 1
9574 38 1
9575 1 1
9575 2 7
9575 3 11
9575 34 10
9576 2 3
9576 12 1
9576 34 1
9577 3 1
9578 3 1
9579 9 7
9579 10 13
9579 11 11
9580 5 1
9581 9 9
9581 10 13
9581 11 13
9582 3 1
9583 24 6
9583 31 2
9584 2 7
9584 3 22
9584 34 21
9585 21 1
9586 34 1
9587 3 1
9588 28 8
9589 34 1
9590 5 1
9592 5 1
9592 12 10
9592 14 3
9592 18 1
9592 38 1
9593 11 1
9594 4 1
9595 20 1
9596 24 1
9597 14 1
9598 24 1
9599 26 1
9600 34 1
9601 3 1
9601 18 3
9602 2 15
9602 3 14
9602 24 4
9602 28 1
9602 31 1
9602 34 20
9603 18 1
9604 3 1
9605 22 1
9605 34 1
9606 8 3
9607 5 1
9608 24 1
9609 12 2
9609 14 2
9610 34 1
9611 31 8
9612 29 8
9613 21 15
9613 22 18
9613 29 1
9614 31 1
9615 1 1
9615 2 12
9615 3 24
9615 34 29
9616 2 1
9617 12 2
9617 14 1
9618 24 9
9619 5 1
9620 3 1
9621 28 1
9622 24 1
9623 4 1
9623 15 9
9623 16 9
9623 17 12
9624 24 1
9625 17 1
9625 24 2
9625 30 1
9625 31 1
9625 38 1
9626 10 1
9626 11 1
9627 21 26
9627 22 18
9628 3 1
9628 9 3
9628 11 3
9628 18 1
9628 19 4
9629 19 1
9629 28 2
9630 7 1
9630 8 3
9630 12 1
9630 18 3
9630 19 6
9630 20 1
9631 11 1
9631 15 2
9631 16 2
9631 17 2
9632 20 1
9633 34 2
9634 3 1
9634 34 1
9635 12 1
9636 14 1
9636 34 1
9637 16 1
9638 12 8
9638 13 1
9638 14 3
9639 24 1
9639 28 1
9640 31 1
9641 2 4
9641 3 9
9641 34 13
9642 2 2
9642 3 22
9642 5 1
9642 34 11
9643 34 1
9644 34 1
9645 18 8
9645 19 5
9645 20 9
9646 9 2
9646 10 17
9646 11 10
9646 29 1
9647 31 1
9648 24 1
9649 29 1
9650 14 1
9650 29 1
9650 34 1
9651 29 32
9651 30 1
9652 38 1
9653 5 1
9654 21 1
9655 2 1
9655 4 8
9655 5 11
9655 24 1
9655 38 19
9656 24 2
9657 21 1
9658 1 1
9659 19 1
9659 21 5
9660 10 1
9661 2 1
9662 2 2
9662 3 5
9662 17 1
9663 20 1
9663 28 2
9664 29 5
9665 7 2
9665 8 7
9666 3 1
9667 29 5
9667 30 1
9668 2 1
9668 21 3
9668 22 8
9669 31 3
9670 1 2
9670 2 12
9670 3 17
9670 4 1
9670 5 1
9670 18 1
9670 34 22
9670 38 1
9671 4 1
9671 38 1
9672 9 2
9673 29 5
9674 2 1
9675 12 1
9675 14 1
9676 19 1
9676 21 4
9676 22 6
9676 24 1
9677 24 1
9678 3 2
9678 34 1
9679 3 1
9679 28 7
9679 31 8
9680 1 2
9680 2 14
9680 3 32
9680 34 68
9681 19 1
9681 29 8
9681 30 1
9682 16 1
9683 12 3
9683 14 3
9683 23 1
9684 11 2
9684 12 6
9684 14 3
9685 12 1
9686 18 1
9687 3 1
9688 5 1
9689 5 3
9689 38 1
9690 24 1
9691 24 19
9692 2 8
9692 3 14
9692 34 24
9693 2 1
9694 24 4
9694 26 1
9695 7 1
9696 7 3
9696 8 6
9697 10 1
9698 28 13
9699 3 1
9700 34 1
9701 5 1
9702 5 1
9703 3 1
9704 18 1
9705 7 5
9705 8 5
9706 2 1
9707 16 1
9707 19 1
9707 20 1
9707 24 1
9708 5 1
9708 34 1
9708 38 1
9709 9 1
9709 10 2
9709 11 2
9710 19 1
9711 34 1
9712 3 3
9712 34 2
9713 31 2
9714 19 1
9715 5 1
9716 19 1
9717 2 1
9717 34 1
9718 4 1
9719 3 1
9719 29 1
9720 15 1
9721 24 1
9722 3 1
9724 12 1
9725 15 1
9725 16 1
9726 29 6
9726 30 1
9727 24 5
9728 4 2
9728 38 5
9729 24 1
9730 24 1
9731 31 3
9732 4 2
9732 5 8
9732 15 4
9732 16 3
9732 17 3
9732 38 17
9733 3 1
9734 12 1
9734 24 19
9735 12 1
9736 2 2
9736 3 3
9736 34 8
9737 4 7
9737 5 47
9737 38 47
9738 1 1
9738 3 3
9738 34 6
9739 18 4
9739 19 12
9739 20 5
9739 34 1
9740 3 1
9741 5 1
9742 10 1
9743 5 2
9743 38 7
9744 10 1
9744 11 1
9744 16 1
9745 28 1
9746 18 1
9747 24 5
9747 26 3
9747 29 7
9748 5 1
9748 14 1
9748 18 15
9748 19 15
9748 20 7
9749 29 12
9750 14 1
9751 21 1
9752 4 3
9752 5 10
9752 38 13
9753 10 1
9753 24 4
9754 8 1
9755 21 26
9755 22 17
9756 38 1
9757 5 1
9757 29 17
9757 30 1
9758 19 1
9759 10 1
9760 38 1
9761 21 19
9761 22 4
9762 24 1
9763 3 1
9764 24 3
9764 29 1
9765 2 11
9765 3 17
9765 26 5
9765 34 11
9766 3 1
9767 24 1
9768 25 1
9768 26 2
9768 28 2
9768 29 2
9768 31 7
9769 18 1
9770 19 30
9770 20 10
9771 24 10
9772 3 1
9772 24 17
9773 21 11
9773 22 11
9774 18 1
9774 19 5
9774 20 1
9775 34 1
9776 31 5
9777 18 3
9777 19 3
9777 20 4
9777 21 1
9778 18 1
9779 31 3
9780 28 5
9781 21 1
9782 12 1
9783 24 1
9784 24 32
9785 29 6
9786 1 2
9786 2 23
9786 3 28
9786 34 50
9787 9 1
9787 10 3
9787 11 4
9787 15 3
9787 16 2
9787 17 5
9788 15 12
9788 16 3
9788 17 6
9789 2 6
9789 3 8
9789 34 9
9789 38 1
9790 7 1
9791 4 3
9791 5 23
9791 18 1
9791 38 30
9792 34 1
9793 18 10
9793 19 12
9793 20 9
9794 21 17
9794 22 24
9795 10 1
9796 29 30
9796 30 4
9797 38 1
9798 21 1
9799 20 1
9799 31 6
9800 5 1
9801 4 1
9802 4 2
9802 5 9
9802 34 1
9802 38 17
9803 3 1
9804 26 2
9804 29 2
9805 7 1
9806 9 1
9806 15 26
9806 16 9
9806 17 12
9806 34 1
9807 34 1
9808 38 1
9809 3 1
9810 21 1
9811 38 1
9812 38 1
9813 1 1
9813 2 4
9813 3 8
9813 34 9
9814 3 1
9815 4 1
9815 24 10
9816 2 1
9816 3 2
9816 24 3
9816 29 2
9816 34 1
9817 23 1
9818 17 1
9819 29 1
9820 8 1
9821 18 14
9821 19 15
9821 20 2
9822 2 2
9822 3 6
9822 34 8
9823 5 2
9823 38 1
9824 29 1
9825 5 1
9826 5 1
9826 11 2
9827 12 1
9828 29 9
9829 31 5
9830 4 1
9830 5 4
9830 34 1
9830 38 3
9831 15 1
9832 28 5
9833 19 1
9834 11 1
9835 29 2
9836 2 1
9837 38 1
9838 38 2
9839 34 1
9840 26 3
9841 29 1
9842 3 1
9843 31 10
9844 9 4
9844 10 22
9844 11 15
9845 2 1
9846 10 1
9846 11 1
9846 17 1
9846 21 4
9846 22 4
9847 2 5
9847 3 5
9847 34 14
9848 19 1
9849 2 5
9849 3 2
9849 34 4
9850 3 1
9851 15 15
9851 16 7
9851 17 6
9852 34 1
9853 11 1
9854 24 9
9855 3 1
9856 34 1
9857 4 3
9857 5 8
9857 38 14
9858 22 1
9859 5 1
9859 12 1
9859 14 1
9859 38 1
9860 24 1
9861 5 1
9862 2 5
9862 3 7
9862 34 15
9864 3 1
9865 3 1
9866 31 1
9867 25 1
9867 26 1
9867 29 32
9867 30 1
9868 18 1
9869 4 1
9870 3 1
9871 2 7
9871 3 8
9871 24 1
9871 28 3
9871 29 6
9871 34 8
9872 38 1
9873 19 1
9874 5 4
9874 38 3
9875 24 7
9876 5 1
9877 22 1
9878 9 12
9878 10 16
9878 11 18
9879 4 1
9879 5 31
9879 38 34
9880 19 1
9881 10 1
9882 31 1
9883 18 10
9883 19 9
9883 20 3
9884 21 1
9885 12 9
9885 14 5
9886 7 2
9886 8 1
9887 14 1
9888 12 1
9888 13 1
9889 31 1
9890 19 1
9891 29 1
9892 11 1
9893 24 12
9894 4 3
9894 5 7
9894 18 1
9894 38 17
9895 21 1
9895 29 1
9896 3 2
9896 26 1
9896 31 1
9897 38 1
9898 26 1
9899 18 9
9899 19 9
9899 20 3
9900 24 1
9901 18 1
9901 20 1
9901 21 1
9901 28 2
9902 19 1
9903 8 1
9903 24 1
9904 31 1
9905 18 1
9906 29 4
9907 38 1
9908 18 1
9908 34 2
9909 5 1
9910 25 1
9910 26 11
9911 5 1
9912 9 1
9913 29 1
9913 30 1
9914 11 1
9914 31 1
9915 28 3
9915 29 2
9916 29 1
9917 12 14
9917 14 4
9918 9 1
9918 10 16
9918 11 10
9919 4 1
9920 31 7
9921 15 9
9921 16 5
9921 17 10
9921 18 9
9921 19 21
9921 20 4
9922 28 1
9923 15 1
9924 28 4
9925 5 1
9925 19 1
9926 38 1
9927 24 1
9928 2 1
9928 3 5
9928 34 8
9929 29 17
9929 30 2
9930 18 1
9931 38 1
9932 18 1
9932 29 1
9933 15 5
9933 16 5
9933 17 5
9933 22 1
9934 21 5
9934 22 3
9935 3 1
9936 4 1
9936 9 1
9936 10 5
9936 11 2
9936 12 3
9936 38 1
9937 21 1
9938 12 25
9938 14 18
9938 19 1
9939 19 1
9940 16 1
9941 17 1
9942 5 1
9942 7 10
9942 8 20
9943 8 1
9943 21 2
9944 11 1
9945 29 1
9946 12 1
9947 3 1
9947 18 6
9947 19 8
9947 20 3
9947 21 1
9948 5 1
9948 12 1
9948 24 7
9949 2 1
9949 5 1
9950 8 1
9951 38 1
9952 21 1
9953 7 1
9953 8 2
9954 2 33
9954 3 54
9954 34 42
9955 4 1
9955 38 1
9956 29 1
9957 31 2
9957 33 1
9958 20 1
9958 22 1
9959 2 1
9959 21 5
9959 22 8
9959 26 1
9960 34 1
9961 5 1
9961 18 7
9961 19 13
9961 20 5
9962 5 1
9962 38 3
9963 20 1
9964 24 1
9965 9 3
9965 10 3
9965 11 2
9966 8 1
9966 19 5
9966 20 2
9967 26 1
9968 34 1
9969 12 1
9970 7 2
9970 8 2
9970 15 1
9971 31 6
9971 33 1
9972 22 1
9973 2 1
9973 21 9
9973 22 14
9974 18 71
9974 19 93
9974 20 31
9975 4 15
9975 5 50
9975 34 1
9975 38 45
9976 26 1
9977 11 1
9978 12 8
9978 14 2
9978 34 1
9979 29 7
9979 30 1
9980 24 4
9980 26 2
9981 24 1
9982 2 12
9982 3 10
9982 34 16
9983 34 1
9984 24 8
9985 24 1
9986 24 1
9987 24 1
9988 19 1
9989 23 1
9989 24 7
9990 24 1
9991 29 1
9992 5 1
9993 18 1
9994 14 1
9995 3 1
9995 34 1
9996 1 2
9996 2 6
9996 3 17
9996 34 11
9997 12 3
9997 13 1
9998 3 1
9999 19 1
10000 2 16
10000 3 27
10000 4 3
10000 5 18
10000 34 29
10000 38 29
10001 22 1
10002 3 1
10003 16 1
10004 21 2
10005 24 7
10005 31 3
10006 18 1
10006 28 2
10007 7 1
10007 8 1
10008 23 1
10008 29 4
10009 12 3
10009 14 6
10010 17 1
10011 22 1
10011 24 10
10012 19 1
10013 23 1
10013 24 22
10013 34 1
10014 16 1
10015 18 1
10015 29 7
10015 30 1
10017 3 2
10018 2 2
10018 3 4
10018 29 3
10018 34 8
10019 3 1
10021 1 2
10021 2 15
10021 3 22
10021 28 3
10021 31 3
10021 34 21
10022 34 1
10023 28 3
10024 21 4
10024 22 2
10025 38 1
10026 2 3
10026 3 18
10026 34 10
10027 24 1
10028 3 1
10029 2 14
10029 3 44
10029 34 22
10030 22 1
10031 29 11
10032 9 1
10032 11 1
10033 16 1
10034 24 3
10035 38 1
10036 5 1
10036 10 5
10036 11 2
10036 18 2
10036 19 1
10036 20 1
10037 3 1
10038 5 2
10038 38 2
10039 3 2
10040 24 1
10041 28 1
10042 31 5
10043 29 3
10043 30 1
10044 10 1
10044 19 1
10045 8 1
10046 3 1
10047 12 24
10047 13 1
10047 14 14
10048 2 1
10048 9 1
10048 34 1
10048 38 1
10049 22 1
10050 3 1
10050 5 1
10051 22 1
10052 29 1
10053 2 1
10054 12 2
10054 14 1
10054 15 17
10054 16 4
10054 17 5
10055 24 1
10056 1 1
10056 2 8
10056 3 14
10056 34 21
10057 3 1
10058 28 1
10059 38 1
10060 4 1
10061 34 1
10062 8 1
10062 31 5
10063 5 1
10063 24 7
10064 28 8
10064 34 1
10065 24 2
10066 29 1
10067 14 1
10068 9 1
10068 24 1
10068 31 2
10069 2 1
10069 24 1
10070 8 4
10070 21 2
10070 22 2
10071 29 10
10072 5 1
10073 12 17
10073 13 2
10073 14 9
10074 28 1
10075 10 1
10076 19 7
10077 24 1
10078 19 1
10079 3 1
10080 19 1
10081 5 1
10081 31 1
10082 29 1
10083 34 1
10084 31 18
10085 31 1
10086 10 1
10087 34 1
10088 12 1
10089 31 2
10090 31 14
10091 24 2
10092 2 1
10093 26 1
10094 12 16
10094 13 2
10094 14 20
10095 9 1
10095 10 4
10095 11 2
10096 2 1
10097 24 4
10098 24 1
10099 9 9
10099 10 16
10099 11 9
10099 34 1
10100 2 1
10101 3 1
10102 34 1
10103 38 2
10104 28 5
10105 2 1
10105 3 3
10105 34 1
10106 28 1
10107 31 1
10108 9 5
10108 10 7
10108 11 4
10109 29 5
10109 30 2
10110 9 3
10110 10 2
10110 11 3
10111 38 1
10112 14 1
10112 29 13
10112 30 1
10113 21 1
10114 8 1
10115 31 7
10116 7 1
10116 8 2
10116 21 9
10116 22 7
10117 24 7
10118 29 1
10119 5 1
10120 29 1
10121 34 1
10122 12 3
10122 14 1
10123 4 1
10123 5 18
10123 38 20
10124 21 12
10124 22 4
10125 21 6
10125 22 12
10126 24 10
10127 18 13
10127 19 27
10127 20 7
10128 5 1
10129 2 6
10129 3 4
10129 24 2
10129 28 1
10129 29 12
10129 30 1
10129 34 8
10130 29 1
10131 20 1
10132 38 1
10133 19 1
10133 23 1
10134 11 1
10135 3 1
10136 15 1
10137 2 8
10137 3 3
10137 25 1
10137 26 2
10137 31 1
10137 34 7
10138 12 1
10139 15 3
10139 16 1
10140 8 1
10141 31 1
10142 9 8
10142 10 13
10142 11 6
10142 15 1
10143 5 1
10144 29 1
10145 31 1
10146 38 1
10147 21 4
10147 22 1
10148 3 1
10148 31 1
10149 38 1
10150 26 1
10151 29 1
10152 7 1
10152 12 69
10152 13 3
10152 14 25
10153 3 1
10154 18 51
10155 16 1
10156 15 45
10156 16 44
10156 17 37
10157 29 1
10158 19 1
10159 34 1
10160 17 1
10161 38 1
10162 12 2
10162 14 4
10163 20 1
10163 31 21
10164 34 1
10165 7 1
10166 20 1
10166 34 1
10167 29 2
10168 22 1
10169 29 1
10170 19 1
10171 38 1
10172 20 1
10173 15 1
10174 24 2
10175 21 13
10175 22 4
10176 31 1
10177 31 2
10178 4 1
10178 5 1
10178 19 1
10179 24 9
10180 2 1
10181 29 3
10182 5 1
10183 24 10
10184 11 1
10185 7 1
10185 8 6
10185 14 1
10186 31 16
10187 28 8
10187 34 1
10188 24 8
10189 26 1
10190 31 6
10191 29 1
10192 2 5
10192 3 5
10192 34 6
10193 19 1
10194 31 3
10195 24 22
10196 14 1
10197 9 8
10197 10 14
10197 11 5
10198 11 1
10198 29 1
10199 5 1
10199 18 1
10199 38 2
10200 9 4
10200 10 8
10200 11 12
10201 2 1
10202 34 1
10203 12 3
10203 24 6
10204 24 1
10205 38 1
10206 2 22
10206 3 44
10206 34 53
10207 24 3
10207 28 3
10208 12 24
10208 13 2
10208 14 15
10209 19 1
10209 24 4
10210 2 1
10211 34 1
10212 9 27
10212 10 30
10212 11 10
10213 18 1
10214 31 1
10215 38 1
10216 3 1
10216 5 1
10216 14 1
10216 19 1
10216 20 2
10216 22 1
10216 24 1
10216 34 1
10217 19 1
10218 38 1
10219 12 2
10219 14 1
10219 34 1
10220 5 2
10220 12 7
10220 14 5
10220 38 3
10221 38 1
10222 31 2
10223 31 1
10224 34 1
10225 4 1
10225 15 1
10226 26 1
10227 12 1
10228 2 1
10229 2 1
10230 18 1
10231 2 3
10231 3 1
10231 24 3
10231 34 2
10232 38 1
10233 24 1
10233 31 10
10234 29 1
10235 24 1
10236 19 1
10237 19 1
10238 18 1
10238 19 4
10239 8 1
10239 38 1
10240 26 1
10240 29 1
10241 4 5
10241 5 15
10241 38 20
10242 2 1
10242 18 1
10243 9 1
10243 10 6
10244 31 7
10245 18 4
10245 19 1
10245 20 1
10245 26 1
10246 19 1
10247 4 1
10247 38 2
10248 24 7
10248 26 1
10249 5 1
10250 12 1
10251 10 1
10252 19 1
10252 31 7
10253 38 1
10254 4 3
10254 5 4
10254 18 1
10254 34 1
10254 38 8
10255 24 5
10256 2 15
10256 3 11
10256 34 19
10257 9 1
10258 12 1
10259 19 1
10260 7 1
10261 7 2
10261 8 13
10261 34 1
10262 10 1
10263 3 1
10263 12 8
10263 13 1
10263 14 9
10264 34 1
10265 21 1
10265 24 2
10265 38 1
10266 9 3
10266 10 3
10267 19 1
10267 26 1
10268 26 1
10269 5 1
10269 28 5
10270 24 1
10271 31 1
10272 22 1
10272 26 1
10273 7 9
10273 8 19
10274 4 3
10274 5 12
10274 38 12
10275 12 1
10276 22 1
10276 29 6
10276 30 1
10277 29 3
10277 30 3
10278 38 1
10279 18 1
10280 16 1
10281 16 6
10281 17 7
10282 29 1
10283 20 1
10284 4 1
10284 5 5
10284 19 1
10284 38 7
10285 9 1
10285 11 1
10286 31 9
10287 9 1
10287 10 6
10287 11 6
10288 19 1
10289 21 1
10290 24 1
10291 24 1
10292 18 3
10292 19 2
10293 31 1
10294 24 6
10294 29 10
10295 19 1
10295 21 7
10295 22 7
10296 31 1
10297 3 1
10298 1 1
10298 2 7
10298 3 10
10298 29 6
10298 31 1
10298 34 14
10299 10 1
10300 21 1
10301 28 2
10302 38 1
10303 26 1
10304 15 3
10304 16 2
10304 21 3
10304 22 2
10305 19 1
10306 5 1
10307 18 22
10307 19 32
10307 20 15
10308 9 13
10308 10 12
10308 11 12
10309 28 3
10310 7 1
10310 8 4
10311 3 1
10311 21 8
10311 22 4
10311 34 1
10312 31 1
10312 33 1
10313 31 4
10313 38 1
10314 12 5
10314 14 2
10315 12 1
10316 38 1
10317 26 1
10318 34 1
10319 3 1
10320 10 3
10321 21 2
10321 22 1
10322 29 1
10323 24 8
10324 24 1
10325 21 1
10325 31 11
10326 4 3
10326 5 14
10326 38 7
10327 18 3
10327 19 4
10327 20 3
10327 31 1
10328 2 10
10328 3 8
10328 28 6
10328 34 25
10328 38 1
10329 26 1
10330 29 1
10331 22 1
10332 24 5
10333 24 4
10334 3 1
10335 24 1
10336 3 1
10336 24 4
10337 3 1
10338 16 1
10339 4 2
10339 5 18
10339 38 18
10340 38 1
10341 14 1
10342 5 5
10342 7 1
10342 8 2
10342 18 3
10342 19 4
10342 38 2
10343 5 1
10344 29 1
10345 18 3
10345 19 1
10346 29 1
10347 12 26
10347 13 1
10347 14 12
10348 18 1
10348 24 1
10349 29 5
10350 8 1
10351 9 2
10351 10 1
10352 38 1
10353 1 1
10353 2 2
10353 3 5
10353 34 6
10354 28 3
10355 29 1
10356 12 22
10356 14 11
10357 28 2
10358 22 1
10359 28 2
10360 3 1
10360 4 6
10360 5 25
10360 38 28
10361 15 10
10361 16 6
10361 17 3
10361 34 2
10362 21 1
10363 24 31
10364 8 1
10365 4 1
10365 5 10
10365 38 7
10366 2 15
10366 3 24
10366 34 33
10367 18 3
10368 3 1
10368 29 1
10369 18 1
10370 24 8
10371 15 6
10371 16 6
10371 17 4
10372 22 1
10373 31 1
10374 9 1
10374 10 1
10375 12 1
10376 16 1
10377 14 1
10377 29 15
10377 34 1
10378 38 1
10379 21 1
10380 26 1
10381 21 3
10381 22 5
10382 14 1
10383 7 1
10383 8 9
10384 3 1
10384 9 1
10384 11 1
10385 15 1
10386 18 1
10387 38 1
10388 29 1
10389 18 1
10389 20 1
10390 18 1
10391 19 2
10392 23 1
10392 24 9
10392 29 5
10393 2 2
10393 3 1
10393 29 1
10394 14 1
10395 20 1
10396 29 8
10397 29 1
10398 24 7
10399 29 8
10399 30 1
10400 21 7
10400 22 4
10401 2 1
10402 5 1
10403 2 7
10403 3 2
10403 34 9
10404 3 1
10405 11 1
10406 15 1
10407 31 1
10408 28 4
10409 26 2
10410 19 1
10411 24 1
10412 31 9
10413 14 1
10413 15 1
10413 16 2
10413 17 1
10413 38 1
10414 19 1
10415 20 1
10416 2 1
10417 24 1
10418 9 1
10418 24 1
10419 12 10
10419 14 5
10420 38 1
10421 38 3
10422 24 8
10423 34 1
10424 15 16
10424 16 6
10424 17 10
10425 24 2
10426 34 1
10427 29 2
10428 22 1
10429 11 4
10430 29 9
10430 30 3
10431 4 1
10432 12 3
10432 14 2
10433 5 1
10434 2 2
10434 3 1
10434 22 1
10434 24 1
10434 34 4
10434 38 2
10435 18 3
10435 19 5
10435 20 2
10436 19 1
10437 24 1
10438 31 1
10439 14 2
10440 24 1
10441 2 1
10441 3 2
10441 34 2
10442 24 1
10443 28 1
10443 31 10
10444 10 1
10445 31 2
10446 31 5
10447 29 1
10448 29 1
10448 31 5
10448 34 1
10449 34 1
10450 11 1
10451 3 1
10451 24 9
10452 25 2
10452 26 1
10453 2 1
10454 21 1
10455 38 1
10456 11 1
10457 2 2
10457 4 2
10457 5 14
10457 11 7
10457 20 1
10457 38 11
10458 9 2
10458 28 1
10459 28 5
10460 4 3
10460 5 15
10460 14 1
10460 38 17
10461 21 22
10461 22 11
10462 21 8
10462 22 9
10463 12 10
10463 14 3
10464 9 1
10465 22 1
10466 29 14
10467 20 1
10468 3 1
10469 29 6
10470 21 1
10471 12 1
10472 12 12
10472 14 8
10473 7 11
10473 8 9
10474 4 2
10474 5 3
10474 14 1
10474 38 7
10475 4 4
10475 5 17
10475 38 16
10476 4 1
10477 18 1
10477 29 13
10477 30 1
10478 5 1
10479 29 25
10479 30 1
10479 34 1
10480 18 2
10480 19 3
10480 21 1
10481 29 4
10481 30 2
10482 18 1
10484 18 2
10485 29 1
10486 8 1
10487 5 1
10488 3 1
10489 3 1
10489 34 2
10490 4 1
10490 5 2
10490 15 1
10490 38 6
10491 4 6
10491 5 42
10491 38 52
10492 5 1
10492 12 10
10493 5 1
10494 18 1
10494 34 1
10495 18 3
10495 20 2
10496 4 6
10496 5 9
10496 12 9
10496 13 1
10496 14 5
10496 38 16
10497 4 3
10497 5 16
10497 38 14
10498 38 1
10499 7 1
10500 2 1
10500 22 1
10500 24 25
10501 24 1
10502 9 1
10502 10 4
10502 11 1
10503 24 4
10504 11 1
10505 24 5
10506 5 1
10507 5 1
10508 28 3
10508 29 1
10509 15 1
10510 4 1
10510 5 4
10510 15 6
10510 16 7
10510 17 8
10510 38 5
10511 29 1
10511 38 1
10512 28 5
10513 30 1
10514 2 1
10515 4 5
10515 5 12
10515 38 12
10516 4 1
10517 24 1
10518 19 1
10519 18 33
10519 19 32
10519 20 14
10520 2 1
10521 29 1
10522 29 5
10522 30 1
10523 4 7
10523 5 9
10523 38 7
10524 26 1
10525 3 1
10525 29 1
10526 20 1
10527 4 2
10527 5 3
10527 38 4
10528 2 1
10529 38 1
10530 8 1
10531 1 1
10531 2 2
10531 3 4
10531 26 3
10531 34 6
10532 31 5
10533 19 1
10534 7 1
10534 21 3
10534 22 1
10535 19 1
10536 31 1
10537 7 2
10537 8 11
10538 5 1
10539 2 2
10539 28 1
10540 21 2
10540 29 1
10541 10 1
10542 29 4
10543 9 4
10543 10 8
10543 11 6
10543 21 2
10543 22 6
10544 24 3
10545 29 1
10546 34 1
10547 14 2
10548 9 1
10549 34 1
10550 21 1
10551 31 1
10551 34 1
10552 18 1
10553 26 3
10554 2 6
10554 3 13
10554 34 12
10554 38 1
10555 21 2
10556 8 1
10557 29 7
10558 4 2
10558 5 17
10558 38 16
10559 5 1
10560 19 1
10561 18 7
10561 19 7
10561 20 7
10562 21 4
10562 22 2
10563 14 1
10563 19 2
10563 20 2
10564 3 1
10565 15 7
10565 16 4
10565 17 7
10566 2 1
10566 28 2
10567 1 1
10567 2 42
10567 3 79
10567 21 1
10567 34 80
10568 3 1
10568 4 2
10568 5 16
10568 38 6
10569 38 1
10570 7 1
10571 29 4
10572 29 1
10573 4 1
10573 5 1
10573 38 3
10574 12 1
10575 3 1
10576 12 35
10576 13 1
10576 14 20
10577 24 8
10577 28 4
10578 29 4
10579 3 1
10579 25 1
10580 24 1
10581 34 1
10582 8 1
10582 19 2
10582 20 1
10583 4 1
10584 18 1
10584 19 2
10585 9 1
10585 10 2
10585 38 1
10586 2 3
10586 3 2
10586 31 1
10586 34 1
10587 29 2
10588 21 6
10588 22 3
10589 29 1
10590 29 1
10591 12 1
10591 15 17
10591 16 14
10591 17 10
10592 21 10
10592 22 2
10593 1 1
10593 2 7
10593 3 6
10593 34 7
10594 34 1
10595 1 1
10595 2 18
10595 3 20
10595 34 32
10596 5 1
10597 7 2
10598 7 1
10599 24 1
10600 2 13
10600 3 18
10600 34 17
10601 8 2
10602 25 1
10602 26 5
10602 28 1
10603 3 1
10604 18 1
10605 5 6
10605 38 1
10606 2 1
10606 21 3
10606 22 1
10607 12 18
10607 14 8
10608 24 1
10609 11 1
10610 34 1
10611 21 1
10611 34 1
10612 19 1
10612 26 1
10612 31 2
10613 9 2
10614 34 1
10615 18 32
10615 19 31
10615 20 8
10616 10 1
10616 11 1
10617 12 1
10618 19 1
10619 29 1
10620 21 5
10620 22 4
10621 20 1
10622 8 1
10623 31 2
10624 18 7
10624 19 15
10625 29 8
10626 29 1
10627 2 1
10628 38 1
10629 3 1
10630 34 1
10631 3 1
10632 3 1
10633 34 1
10634 19 1
10635 14 1
10636 5 1
10636 12 1
10637 20 1
10638 24 8
10639 14 1
10640 31 1
10641 1 1
10641 2 18
10641 3 45
10641 34 49
10642 2 1
10643 1 1
10643 2 11
10643 3 25
10643 34 21
10644 24 1
10645 24 1
10646 24 1
10647 9 5
10647 10 3
10647 11 6
10648 21 1
10649 29 6
10650 4 2
10650 5 23
10650 38 25
10651 38 1
10652 4 4
10652 5 16
10652 31 4
10652 38 16
10653 2 5
10653 3 8
10653 34 9
10654 31 1
10655 10 1
10655 29 1
10656 3 1
10657 18 1
10657 26 1
10657 38 1
10658 21 1
10658 22 3
10659 17 1
10660 2 1
10660 3 8
10660 34 4
10661 38 1
10662 34 1
10663 4 4
10663 5 17
10663 38 9
10664 29 1
10665 25 1
10665 26 5
10666 1 1
10666 2 18
10666 3 26
10666 24 1
10666 34 31
10667 38 1
10668 10 1
10669 11 1
10670 5 1
10671 3 1
10672 4 1
10672 5 1
10672 38 1
10673 22 1
10674 31 5
10675 12 1
10676 4 1
10676 12 2
10676 14 3
10677 1 2
10677 2 6
10677 3 3
10677 29 1
10677 34 1
10678 3 1
10679 26 2
10680 19 1
10681 24 1
10682 31 1
10683 2 1
10684 12 1
10685 19 1
10685 29 2
10686 2 2
10686 4 1
10687 15 3
10687 16 3
10687 17 1
10687 38 1
10688 21 6
10688 22 5
10689 29 7
10690 1 2
10690 2 18
10690 3 11
10690 4 1
10690 5 1
10690 29 11
10690 30 1
10690 34 22
10690 38 1
10691 3 1
10692 4 9
10692 5 45
10692 38 40
10693 26 2
10694 12 1
10694 29 1
10694 31 3
10695 29 10
10696 9 1
10697 15 1
10698 24 3
10699 14 1
10699 31 3
10700 7 1
10701 3 1
10701 9 1
10702 21 13
10702 22 8
10703 18 36
10703 19 34
10703 20 8
10704 15 8
10704 17 2
10705 12 1
10706 3 1
10707 38 1
10708 29 11
10708 30 2
10709 29 1
10710 17 1
10711 26 2
10712 24 1
10713 29 20
10713 30 1
10714 24 10
10714 25 1
10714 26 2
10715 12 1
10716 24 2
10717 24 1
10718 18 1
10718 28 1
10719 26 1
10720 22 1
10721 5 1
10722 29 13
10723 26 1
10723 29 7
10724 18 1
10725 7 3
10725 8 7
10726 2 1
10727 31 1
10728 24 7
10729 24 2
10729 31 1
10730 14 1
10731 24 1
10732 7 2
10732 8 1
10732 21 1
10732 22 3
10733 24 8
10734 12 1
10735 2 2
10735 3 2
10735 34 2
10736 18 6
10736 19 6
10737 21 1
10737 22 2
10738 18 1
10738 19 1
10738 20 1
10738 21 3
10738 22 2
10739 4 5
10739 5 27
10739 12 1
10739 38 24
10740 34 1
10741 34 1
10742 15 1
10742 34 1
10743 21 2
10743 22 3
10744 24 2
10745 4 5
10745 5 6
10745 20 1
10745 38 9
10746 5 4
10746 12 6
10746 14 3
10746 38 3
10747 25 1
10747 26 2
10747 29 5
10748 18 1
10749 2 1
10750 24 1
10751 20 1
10751 31 7
10752 3 1
10752 5 1
10753 2 6
10753 3 8
10753 16 1
10753 31 2
10753 34 9
10754 10 1
10755 3 1
10756 31 2
10757 24 1
10758 29 6
10759 34 1
10760 31 3
10761 2 3
10761 3 1
10761 34 3
10762 31 1
10763 21 5
10763 22 1
10764 25 1
10765 38 1
10766 21 1
10766 22 2
10767 12 5
10767 14 4
10767 18 1
10767 19 2
10767 20 1
10768 28 4
10768 34 1
10769 29 1
10770 38 1
10771 9 11
10771 10 18
10771 11 5
10772 12 3
10773 7 1
10774 3 1
10775 4 1
10776 17 1
10777 21 4
10777 22 3
10778 2 11
10778 3 19
10778 24 1
10778 34 21
10779 12 1
10780 26 1
10781 2 1
10781 28 9
10782 24 1
10783 10 1
10784 3 1
10785 29 11
10786 24 10
10786 31 15
10787 29 1
10788 3 2
10789 29 26
10789 30 1
10790 2 1
10791 22 1
10791 24 5
10792 28 1
10793 31 1
10794 18 11
10794 19 11
10794 20 5
10794 24 1
10795 24 24
10796 2 8
10796 3 12
10796 34 14
10797 24 4
10798 8 1
10799 3 1
10799 30 1
10800 4 4
10800 5 30
10800 38 16
10801 12 3
10801 14 1
10801 16 1
10802 8 1
10803 29 1
10804 2 1
10805 31 7
10806 19 1
10806 21 16
10806 22 12
10807 30 1
10807 31 7
10808 34 1
10809 4 2
10809 5 13
10809 21 10
10809 22 3
10809 38 16
10810 29 1
10811 8 1
10812 5 1
10813 4 1
10813 20 1
10814 25 1
10815 24 8
10816 34 1
10817 34 1
10818 12 1
10818 31 2
10818 34 1
10819 4 1
10819 5 5
10819 38 10
10820 21 1
10821 34 1
10822 1 1
10822 2 9
10822 3 9
10822 24 1
10822 34 21
10823 15 1
10824 19 1
10824 31 4
10825 24 1
10826 38 1
10827 14 1
10828 7 5
10828 8 5
10829 24 5
10830 29 22
10830 30 2
10831 31 14
10832 12 1
10833 38 1
10834 31 1
10835 34 1
10836 28 1
10836 29 1
10837 28 1
10838 15 7
10838 16 1
10838 17 4
10839 19 1
10840 26 3
10840 28 2
10841 29 2
10842 26 4
10842 29 8
10842 30 1
10842 31 7
10843 38 1
10844 2 1
10844 9 12
10844 10 24
10844 11 6
10845 26 1
10846 3 1
10847 26 3
10848 19 1
10849 34 2
10850 24 13
10851 15 1
10852 4 5
10852 5 14
10852 38 11
10853 11 1
10854 2 1
10855 18 1
10856 18 19
10856 19 23
10856 20 13
10857 2 2
10857 3 1
10857 34 4
10858 12 2
10859 2 13
10859 3 20
10859 34 31
10860 28 1
10861 8 1
10861 31 1
10862 5 1
10863 17 1
10864 15 3
10864 16 3
10864 17 1
10865 3 1
10866 38 1
10867 18 1
10868 24 1
10869 15 1
10869 21 1
10870 26 3
10871 11 1
10872 5 1
10872 15 9
10872 16 9
10872 17 8
10872 38 1
10873 24 3
10874 12 1
10874 14 1
10874 19 1
10874 20 1
10875 3 1
10875 34 2
10876 29 1
10877 2 4
10877 3 12
10877 29 30
10877 30 3
10877 34 13
10878 28 5
10879 29 20
10879 30 1
10880 19 1
10881 9 10
10881 10 14
10881 11 13
10881 18 2
10881 19 3
10881 20 1
10882 28 1
10883 9 2
10883 10 14
10883 11 6
10884 3 1
10885 7 6
10885 8 11
10886 18 25
10886 19 17
10886 20 17
10886 21 1
10887 5 2
10888 8 1
10889 29 13
10889 30 2
10890 24 18
10891 2 1
10891 3 2
10891 29 1
10891 30 1
10891 34 1
10892 5 1
10892 14 1
10893 29 1
10894 22 1
10895 34 1
10896 29 1
10897 34 1
10898 7 1
10899 21 5
10899 22 1
10900 1 1
10901 4 6
10901 5 9
10901 38 10
10902 5 1
10903 29 3
10903 30 1
10904 34 1
10905 12 1
10905 19 1
10906 24 1
10907 5 1
10908 17 1
10909 9 3
10909 10 13
10909 11 10
10909 22 1
10909 24 3
10910 2 1
10910 4 1
10910 5 1
10910 38 3
10911 34 1
10912 2 1
10913 29 4
10913 30 1
10914 4 2
10914 5 26
10914 18 16
10914 19 13
10914 20 7
10914 34 1
10914 38 17
10915 24 13
10916 19 1
10917 28 2
10918 3 1
10919 4 1
10919 5 4
10919 12 1
10919 38 6
10920 3 1
10920 12 34
10920 13 3
10920 14 32
10921 18 1
10921 21 6
10921 22 2
10922 5 1
10923 26 1
10924 28 3
10925 3 1
10926 28 2
10927 4 1
10927 5 4
10927 38 7
10928 14 1
10929 28 1
10930 9 16
10930 10 15
10930 11 14
10931 18 1
10932 28 1
10933 19 1
10933 29 4
10934 28 2
10935 2 1
10936 24 1
10936 31 11
10936 32 1
10937 28 2
10938 9 1
10939 3 1
10940 24 1
10940 29 1
10940 31 1
10941 24 2
10942 22 1
10943 29 16
10943 30 1
10944 34 1
10945 26 1
10946 2 1
10947 11 1
10947 12 83
10947 13 1
10947 14 42
10948 29 1
10949 18 1
10950 9 2
10950 10 3
10950 11 1
10950 15 3
10950 16 3
10950 17 4
10950 21 2
10950 22 3
10951 12 1
10952 4 3
10952 5 25
10952 38 16
10953 3 1
10953 18 1
10954 31 1
10955 5 1
10956 10 1
10956 22 1
10957 24 1
10958 24 4
10959 8 1
10960 4 2
10960 5 4
10960 18 1
10960 38 9
10961 17 1
10962 28 2
10963 20 1
10963 24 13
10964 29 4
10965 5 1
10966 18 10
10966 19 15
10966 20 9
10967 3 1
10968 31 1
10968 34 1
10969 12 46
10969 13 1
10969 14 22
10970 24 1
10971 29 1
10972 21 1
10973 34 1
10974 28 3
10975 29 1
10976 22 1
10977 21 22
10977 22 21
10977 31 1
10978 9 1
10978 20 1
10978 21 13
10978 22 18
10979 12 1
10979 28 1
10979 38 1
10980 7 2
10981 8 1
10982 38 1
10983 5 1
10984 15 8
10984 16 3
10984 17 5
10985 19 1
10985 29 13
10985 30 1
10986 18 8
10986 19 9
10986 20 2
10987 15 1
10987 16 1
10987 17 1
10987 34 1
10988 7 1
10988 9 2
10988 10 8
10988 11 2
10989 29 6
10990 3 1
10991 28 7
10992 31 1
10993 20 1
10993 34 1
10994 38 1
10995 26 1
10995 31 5
10996 31 9
10997 7 11
10997 8 17
10998 2 9
10998 3 5
10998 34 12
10999 7 1
11000 24 1
11001 20 1
11002 29 1
11003 19 1
11004 23 1
11004 24 12
11005 29 1
11006 34 1
11007 5 5
11007 38 7
11008 24 11
11009 18 5
11009 19 13
11009 20 1
11010 24 6
11010 28 2
11011 5 2
11011 29 1
11011 38 2
11013 15 1
11014 29 1
11015 2 1
11016 16 1
11017 12 1
11018 2 9
11018 3 13
11018 34 27
11019 3 1
11020 34 1
11021 24 1
11022 15 1
11022 38 1
11023 25 2
11023 26 2
11023 29 9
11023 30 2
11024 34 1
11025 29 1
11026 19 1
11027 29 1
11028 38 1
11029 29 1
11030 29 17
11030 30 2
11031 5 1
11031 38 1
11032 3 1
11033 5 1
11033 29 6
11033 30 1
11034 4 10
11034 5 23
11034 19 1
11034 38 28
11035 24 1
11036 4 3
11036 5 6
11036 18 8
11036 19 19
11036 20 3
11036 38 5
11037 3 1
11037 31 1
11038 18 1
11039 5 1
11039 26 2
11040 31 1
11041 1 1
11041 2 10
11041 3 14
11041 28 1
11041 34 21
11042 29 1
11043 18 31
11043 19 15
11043 20 9
11044 38 2
11045 3 1
11045 34 2
11046 3 1
11046 4 1
11046 26 2
11046 29 1
11046 34 5
11047 19 1
11048 14 1
11049 4 3
11049 5 3
11049 38 3
11050 24 8
11051 18 1
11052 8 1
11053 1 1
11053 2 11
11053 3 36
11053 34 28
11054 2 1
11055 24 1
11056 3 1
11056 24 10
11057 14 1
11058 11 1
11059 31 5
11060 20 1
11060 31 1
11061 8 1
11062 18 32
11062 19 31
11062 20 3
11063 12 1
11063 14 2
11063 15 14
11063 16 3
11063 17 8
11064 34 1
11065 19 1
11066 4 1
11067 4 10
11067 5 43
11067 38 57
11068 9 2
11068 10 5
11068 11 4
11068 12 1
11068 14 1
11068 18 1
11068 24 8
11069 34 1
11070 2 1
11070 12 10
11070 14 2
11070 17 1
11071 26 1
11071 30 1
11072 29 6
11072 31 2
11073 4 1
11074 2 1
11074 24 5
11075 5 1
11075 8 1
11076 38 1
11077 34 1
11078 15 4
11078 16 1
11078 17 1
11079 34 1
11080 9 1
11081 15 12
11081 16 6
11081 17 6
11082 3 1
11083 22 1
11084 31 1
11085 38 1
11086 29 2
11086 30 1
11086 34 1
11087 19 1
11088 5 1
11088 38 2
11089 31 1
11090 19 1
11091 12 1
11092 4 1
11092 5 4
11092 38 4
11093 34 1
11094 5 1
11094 29 1
11095 5 5
11095 7 3
11095 8 2
11095 9 1
11095 38 1
11096 2 1
11097 24 3
11098 4 1
11099 9 2
11099 10 3
11100 18 1
11101 22 1
11101 31 7
11102 3 1
11103 11 1
11104 29 4
11105 18 1
11106 19 1
11107 2 2
11107 3 9
11107 24 28
11107 34 11
11108 7 1
11109 2 12
11109 3 16
11109 5 1
11109 34 26
11110 24 8
11111 38 1
11112 28 2
11113 31 1
11114 3 1
11114 24 1
11114 29 1
11115 29 2
11116 4 1
11117 29 13
11118 18 1
11119 29 1
11120 38 1
11121 38 1
11122 3 1
11123 2 2
11123 3 6
11123 34 2
11124 24 8
11125 29 1
11126 29 1
11127 29 1
11128 18 1
11128 19 1
11129 9 1
11129 18 1
11130 2 1
11131 31 1
11132 31 1
11133 29 1
11134 2 5
11134 3 11
11134 5 1
11134 29 10
11134 30 1
11134 34 14
11135 28 3
11136 24 1
11137 18 7
11137 19 3
11137 20 2
11138 4 4
11138 5 13
11138 38 15
11139 5 1
11139 29 1
11140 12 1
11140 29 1
11141 3 1
11142 24 1
11143 31 6
11144 19 1
11145 20 1
11146 3 1
11146 31 6
11147 5 1
11148 5 1
11148 21 1
11148 34 1
11149 4 5
11149 5 27
11149 38 28
11150 29 1
11150 31 11
11151 24 1
11152 34 1
11153 3 1
11153 34 1
11154 29 15
11155 34 1
11156 24 1
11156 26 1
11157 24 2
11158 4 4
11158 5 12
11158 38 9
11159 7 2
11159 8 9
11160 24 1
11161 7 2
11161 8 1
11162 31 1
11163 24 3
11164 29 1
11164 31 1
11165 19 1
11166 15 1
11167 5 2
11167 12 1
11167 18 25
11167 19 9
11167 20 1
11167 31 1
11168 24 1
11168 31 14
11169 28 2
11170 21 1
11171 24 1
11172 2 2
11172 3 13
11172 34 24
11173 2 6
11173 3 6
11173 34 5
11174 10 2
11174 11 1
11174 21 1
11175 21 16
11175 22 16
11176 31 1
11177 25 1
11177 26 4
11178 24 1
11178 29 6
11179 18 5
11179 19 5
11180 7 1
11180 8 1
11180 21 4
11180 22 1
11181 13 1
11182 28 1
11183 29 5
11184 9 6
11184 10 8
11184 11 10
11185 14 1
11186 31 7
11186 34 1
11187 34 1
11188 26 8
11189 5 1
11189 18 1
11189 38 1
11190 19 17
11190 20 1
11191 15 1
11192 3 1
11193 2 11
11193 3 24
11193 34 36
11194 15 1
11194 17 1
11195 21 1
11196 12 18
11196 13 1
11196 14 8
11197 3 1
11197 4 5
11197 5 23
11197 38 24
11198 5 1
11199 7 1
11200 34 1
11201 29 5
11201 30 2
11202 2 1
11202 3 1
11203 3 1
11204 19 1
11205 19 1
11205 31 4
11206 9 2
11206 10 8
11206 11 3
11207 23 1
11207 24 11
11208 28 3
11209 2 1
11209 22 1
11209 28 1
11210 26 2
11210 31 1
11211 12 1
11211 14 1
11212 26 1
11213 18 31
11213 19 18
11213 20 11
11213 24 1
11214 10 1
11214 14 1
11214 18 1
11214 19 2
11214 21 1
11215 24 10
11216 2 1
11217 38 1
11218 29 1
11219 34 4
11220 5 1
11220 18 1
11220 24 5
11221 38 1
11222 10 1
11222 15 1
11223 4 1
11224 5 1
11224 21 3
11224 22 1
11225 4 1
11225 5 8
11225 38 7
11226 24 4
11227 2 1
11227 29 1
11228 24 1
11229 12 2
11229 14 3
11230 21 1
11231 18 1
11232 2 1
11232 34 3
11233 3 1
11233 34 1
11234 26 3
11234 29 7
11235 2 1
11236 34 1
11237 2 4
11237 3 11
11237 8 1
11237 34 9
11238 25 1
11238 26 3
11238 29 2
11239 3 1
11239 5 1
11240 12 1
11240 14 1
11241 3 1
11242 15 1
11243 4 3
11243 5 23
11243 8 2
11243 38 24
11244 8 1
11245 18 1
11246 4 2
11246 5 10
11246 38 5
11247 24 1
11247 31 11
11248 22 1
11249 3 1
11250 8 1
11251 2 22
11251 3 37
11251 21 1
11251 34 40
11252 21 1
11253 28 1
11254 38 2
11255 29 1
11255 34 1
11256 24 1
11257 2 4
11257 3 9
11257 34 15
11258 19 1
11259 34 1
11260 4 4
11260 5 11
11260 29 4
11260 38 8
11261 29 12
11261 30 1
11262 29 3
11263 19 1
11264 19 1
11264 29 13
11265 21 1
11266 26 1
11267 12 10
11267 14 6
11268 19 1
11269 4 2
11269 5 7
11269 38 6
11270 30 1
11271 29 2
11272 4 1
11273 25 1
11273 26 2
11274 29 1
11275 31 2
11276 2 1
11277 19 1
11278 21 1
11279 17 1
11280 5 1
11280 12 1
11281 19 1
11282 24 3
11282 29 2
11282 34 2
11283 3 1
11283 34 2
11284 19 1
11285 29 1
11286 34 1
11287 38 1
11288 19 1
11289 7 1
11289 21 1
11289 31 8
11290 9 15
11290 10 27
11290 11 17
11291 18 1
11292 2 3
11292 3 8
11292 34 8
11293 31 9
11293 33 1
11294 24 15
11295 24 9
11296 14 1
11297 31 3
11297 34 1
11298 15 1
11299 23 1
11299 24 17
11300 2 1
11300 29 3
11300 30 1
11301 15 1
11302 15 9
11302 16 6
11302 17 5
11302 19 1
11302 29 1
11303 21 1
11304 29 1
11305 12 1
11306 26 1
11307 4 1
11307 5 5
11307 38 3
11308 1 1
11308 2 38
11308 3 48
11308 29 6
11308 34 63
11309 38 1
11310 29 1
11311 8 1
11312 31 7
11313 31 1
11314 19 1
11315 10 1
11315 21 5
11315 22 4
11316 29 7
11316 30 1
11317 29 5
11317 31 5
11318 3 1
11318 26 4
11318 29 12
11318 30 2
11318 31 7
11318 34 1
11319 18 3
11319 19 4
11320 29 1
11320 34 1
11321 34 1
11322 34 1
11323 5 1
11323 9 2
11323 10 8
11323 11 7
11324 34 1
11325 5 1
11326 3 1
11327 4 3
11327 5 14
11327 38 11
11328 24 1
11328 34 1
11329 28 2
11330 12 1
11331 34 1
11332 16 1
11333 1 1
11333 2 9
11333 3 20
11333 12 1
11333 34 13
11334 3 1
11335 24 1
11336 10 1
11336 19 1
11336 26 1
11337 12 1
11337 15 1
11337 24 1
11338 21 3
11338 22 1
11339 31 1
11340 34 1
11341 21 14
11341 22 11
11341 29 1
11342 7 4
11342 8 5
11343 24 1
11344 9 2
11344 10 2
11344 11 2
11345 24 1
11346 29 2
11346 30 1
11347 29 1
11348 18 1
11348 29 3
11349 28 4
11350 3 1
11350 15 1
11351 23 1
11351 24 43
11351 28 1
11352 18 1
11353 3 1
11354 24 15
11354 38 1
11355 34 1
11356 4 1
11356 5 7
11356 38 11
11357 8 1
11358 5 1
11358 12 1
11358 14 1
11359 12 1
11360 4 1
11360 5 2
11360 38 5
11361 24 13
11361 29 5
11362 31 1
11363 34 1
11364 34 1
11365 1 1
11365 2 7
11365 3 5
11365 34 7
11366 28 1
11367 2 1
11367 3 1
11368 18 1
11369 16 1
11370 34 1
11371 10 1
11371 34 1
11372 8 1
11373 34 1
11374 3 1
11375 28 2
11376 2 8
11376 3 16
11376 34 18
11377 15 1
11377 16 1
11377 24 3
11377 38 1
11378 34 1
11379 8 1
11379 11 1
11379 29 8
11379 30 3
11380 24 1
11381 5 1
11382 1 1
11383 11 1
11384 5 1
11385 5 1
11386 29 1
11387 8 2
11387 10 1
11388 29 1
11389 17 1
11389 29 3
11390 2 1
11390 3 1
11391 15 1
11391 17 1
11392 12 3
11392 14 5
11392 24 1
11393 2 1
11393 24 1
11394 31 1
11395 29 2
11396 3 1
11396 12 7
11396 14 3
11397 18 1
11398 31 1
11399 2 9
11399 3 10
11399 34 18
11400 38 1
11401 24 2
11402 3 1
11403 21 1
11404 4 5
11404 5 15
11404 38 8
11405 26 1
11405 29 7
11405 31 15
11406 34 1
11407 15 1
11407 24 1
11408 31 1
11409 2 1
11410 38 1
11411 31 18
11412 3 1
11412 8 6
11412 19 1
11412 24 1
11413 5 1
11414 21 14
11414 22 18
11415 21 8
11415 22 1
11416 28 2
11417 21 1
11418 3 1
11419 2 20
11419 3 20
11419 34 25
11420 38 1
11421 2 17
11421 3 20
11421 24 1
11421 34 22
11422 2 1
11422 21 1
11422 24 1
11423 24 7
11424 31 7
11425 16 1
11426 5 1
11426 26 2
11427 14 1
11428 18 11
11428 19 10
11428 20 2
11429 4 1
11430 3 1
11431 34 1
11432 3 1
11433 18 1
11433 24 5
11434 24 1
11434 34 1
11434 38 1
11435 34 1
11436 14 1
11437 34 1
11438 9 1
11439 9 1
11439 10 1
11439 11 1
11440 5 1
11440 28 8
11441 2 1
11442 22 1
11443 18 38
11443 19 45
11443 20 18
11444 5 2
11445 5 1
11445 9 2
11445 10 2
11445 11 1
11446 2 1
11446 3 4
11446 34 2
11447 5 1
11448 1 1
11449 29 5
11450 29 1
11451 31 5
11452 26 9
11452 29 9
11453 29 23
11453 30 2
11454 3 1
11455 12 1
11455 14 1
11456 2 1
11457 2 1
11458 4 20
11458 5 78
11458 38 92
11459 29 11
11460 3 1
11460 34 3
11461 12 7
11461 14 4
11462 29 1
11464 31 1
11465 34 1
11466 2 8
11466 3 4
11466 4 1
11466 5 1
11466 34 15
11467 9 1
11468 4 1
11468 5 22
11468 38 24
11469 21 7
11469 22 2
11470 31 1
11471 12 1
11471 18 3
11471 19 14
11471 24 1
11472 24 8
11473 1 1
11473 2 6
11473 3 29
11473 34 22
11474 29 1
11475 29 1
11476 38 1
11477 34 1
11478 24 1
11479 12 1
11479 14 1
11480 31 4
11481 4 1
11481 5 9
11481 38 7
11482 34 1
11483 1 1
11483 2 3
11483 3 14
11483 34 27
11484 15 36
11484 16 12
11484 17 20
11485 20 1
11485 24 6
11486 4 1
11487 3 1
11487 34 1
11488 21 1
11489 29 1
11490 17 1
11491 31 3
11492 17 2
11492 38 1
11493 4 2
11493 5 12
11493 38 20
11494 28 3
11495 11 1
11496 4 1
11497 9 2
11497 10 5
11497 11 2
11498 1 1
11498 2 27
11498 3 67
11498 24 2
11498 34 83
11499 3 1
11499 24 6
11500 2 1
11501 26 1
11501 31 3
11502 4 7
11502 5 23
11502 38 37
11503 31 1
11504 22 1
11504 31 1
11505 8 1
11506 24 12
11507 31 1
11507 34 1
11508 2 4
11508 3 8
11508 34 12
11509 31 1
11510 12 1
11510 18 4
11510 19 2
11511 34 1
11512 3 1
11513 14 1
11514 2 8
11514 3 18
11514 4 1
11514 34 10
11515 3 1
11516 5 1
11516 12 3
11516 14 1
11516 24 1
11517 1 1
11517 2 12
11517 3 19
11517 34 22
11518 2 6
11518 3 9
11518 34 21
11519 7 10
11519 8 12
11520 5 1
11521 2 9
11521 3 27
11521 19 1
11521 34 22
11522 30 1
11523 34 1
11524 5 1
11525 11 1
11525 12 1
11526 29 1
11527 31 6
11528 24 3
11528 31 3
11529 24 6
11530 8 9
11531 3 1
11532 29 1
11533 24 1
11533 29 1
11534 9 6
11534 10 13
11534 11 8
11535 19 1
11536 24 1
11537 5 1
11538 24 1
11539 34 1
11540 22 1
11541 24 24
11542 22 1
11543 10 1
11544 17 1
11545 2 1
11546 18 2
11547 5 1
11547 17 1
11548 5 4
11548 7 1
11548 15 13
11548 16 2
11548 17 11
11548 38 4
11549 31 5
11550 34 1
11551 34 1
11552 24 5
11552 26 1
11553 24 2
11554 34 1
11555 2 3
11556 19 1
11557 3 1
11558 9 1
11559 3 1
11559 4 1
11559 5 9
11559 27 1
11560 31 1
11561 28 2
11562 2 1
11563 19 2
11564 31 1
11565 15 1
11565 16 2
11566 34 1
11567 24 1
11567 29 1
11568 38 1
11569 29 1
11570 31 1
11570 34 1
11571 11 1
11571 21 1
11571 29 1
11572 21 1
11572 28 5
11573 29 1
11574 7 1
11574 8 3
11575 3 1
11576 2 1
11577 8 2
11578 28 1
11579 18 21
11579 19 27
11579 20 13
11579 31 1
11580 12 7
11580 14 4
11581 28 2
11582 19 1
11583 26 7
11583 29 4
11584 18 1
11585 5 2
11585 8 1
11585 12 17
11585 14 9
11586 11 1
11587 29 14
11588 34 1
11589 24 1
11590 18 22
11590 19 35
11590 20 13
11591 15 1
11592 2 2
11592 25 1
11593 5 1
11594 9 1
11594 10 1
11594 11 2
11595 2 1
11596 14 1
11597 24 1
11598 21 1
11599 16 1
11600 8 2
11601 18 8
11601 19 9
11601 20 2
11601 28 2
11602 9 1
11603 31 4
11604 5 1
11605 21 2
11606 2 3
11606 3 2
11606 34 3
11607 3 1
11608 20 1
11608 29 8
11608 30 2
11609 15 1
11610 24 1
11611 15 2
11612 4 1
11612 5 8
11612 38 6
11613 28 6
11614 26 3
11615 10 1
11616 18 16
11616 19 20
11616 20 7
11617 2 7
11617 3 18
11617 24 2
11617 34 26
11618 18 1
11619 20 1
11620 14 1
11621 4 3
11621 5 28
11621 34 1
11621 38 23
11622 29 8
11622 30 2
11623 4 3
11623 5 4
11623 38 10
11624 9 1
11624 10 4
11624 11 3
11625 18 16
11625 19 13
11626 29 4
11626 30 1
11627 22 1
11628 34 1
11629 29 14
11630 4 1
11630 5 5
11630 14 1
11630 21 8
11630 22 6
11631 38 1
11632 15 1
11633 15 2
11633 17 3
11634 29 1
11635 29 42
11636 16 1
11637 38 1
11638 3 1
11639 34 1
11640 21 2
11640 22 3
11641 31 1
11642 8 3
11643 34 1
11644 5 1
11645 21 11
11645 22 5
11646 24 1
11647 24 25
11648 18 5
11648 19 3
11648 20 2
11649 2 1
11650 5 1
11650 24 9
11651 7 1
11652 18 1
11653 2 1
11653 3 1
11653 34 1
11654 38 1
11655 20 1
11656 29 1
11657 3 1
11658 29 1
11659 9 1
11659 10 5
11659 11 1
11659 34 1
11660 38 1
11661 28 4
11662 3 1
11662 38 1
11663 1 1
11663 2 4
11663 3 10
11663 29 2
11663 34 7
11664 19 1
11665 34 1
11666 4 3
11666 5 16
11666 9 1
11666 38 11
11667 15 1
11667 17 1
11668 24 1
11669 12 5
11669 13 1
11669 14 3
11670 4 1
11671 10 1
11671 11 1
11671 38 1
11672 28 2
11673 18 1
11674 19 1
11675 29 23
11675 30 1
11676 24 1
11677 29 1
11678 3 1
11679 24 4
11680 34 1
11681 5 8
11681 15 2
11681 16 3
11681 21 1
11681 38 6
11682 15 10
11682 16 3
11682 17 4
11682 34 1
11683 5 1
11683 38 1
11684 21 1
11685 5 1
11685 38 1
11686 8 1
11686 31 1
11687 22 1
11688 5 1
11689 34 1
11690 4 3
11690 5 12
11690 38 9
11691 18 1
11692 12 3
11692 14 2
11693 2 5
11693 3 16
11693 34 15
11694 24 1
11695 5 1
11696 34 1
11697 4 2
11697 5 15
11697 38 17
11698 12 1
11698 38 1
11699 2 5
11699 3 12
11699 34 11
11700 18 1
11701 21 2
11701 22 4
11702 31 1
11703 2 22
11703 3 25
11703 34 36
11704 21 7
11704 22 7
11705 31 4
11706 5 1
11707 29 4
11708 18 1
11708 19 2
11708 20 1
11709 18 2
11710 29 2
11711 24 2
11712 34 1
11713 4 1
11713 5 1
11714 21 7
11714 22 2
11715 1 3
11715 2 11
11715 3 24
11715 34 24
11716 17 1
11717 7 17
11717 8 20
11718 34 1
11719 3 1
11719 34 4
11720 3 1
11721 5 1
11722 17 1
11722 29 1
11723 2 2
11723 3 11
11723 34 4
11724 5 1
11725 29 2
11726 19 7
11726 29 2
11727 29 1
11728 12 1
11729 1 1
11729 2 16
11729 3 22
11729 34 27
11730 31 7
11731 34 1
11732 21 3
11733 8 1
11734 34 1
11735 12 7
11735 13 1
11735 14 6
11735 18 5
11735 19 5
11735 20 3
11736 19 1
11737 24 6
11738 2 2
11738 3 2
11738 34 9
11739 3 1
11740 5 2
11740 38 1
11741 5 1
11742 4 3
11742 5 11
11742 38 11
11743 4 4
11743 5 20
11743 38 19
11744 3 1
11745 5 2
11745 38 1
11746 4 2
11746 5 5
11746 38 4
11747 28 1
11747 31 7
11748 4 3
11748 5 13
11748 28 3
11748 38 16
11749 29 1
11750 3 3
11750 34 8
11751 4 6
11751 5 21
11751 38 23
11752 38 1
11753 34 1
11754 2 18
11754 3 17
11754 34 26
11755 31 1
11756 21 20
11756 22 8
11757 3 1
11757 24 2
11758 12 4
11758 14 1
11759 14 1
11760 19 1
11760 24 1
11761 29 6
11762 7 1
11763 18 1
11764 18 23
11764 19 24
11764 20 11
11765 27 1
11765 28 3
11766 10 1
11767 9 1
11767 10 1
11767 11 3
11768 24 1
11769 27 1
11770 31 3
11771 15 1
11772 11 1
11773 19 1
11774 14 1
11775 5 1
11775 21 1
11776 24 1
11777 3 1
11778 14 1
11778 38 1
11779 17 1
11780 9 5
11780 10 1
11780 11 5
11780 12 4
11780 14 4
11780 18 13
11780 19 15
11780 20 7
11781 24 3
11781 26 3
11782 17 1
11783 22 1
11784 11 1
11785 10 1
11785 12 1
11785 18 4
11785 19 4
11786 22 1
11786 24 5
11787 34 1
11788 26 3
11788 29 12
11788 30 1
11789 9 1
11789 21 21
11789 22 10
11790 29 1
11791 14 1
11792 29 3
11792 30 2
11793 3 1
11794 38 1
11795 2 17
11795 3 27
11795 34 27
11796 34 2
11797 3 1
11797 34 1
11798 5 1
11798 38 2
11799 24 1
11800 3 1
11801 4 1
11801 5 3
11801 38 1
11802 24 3
11803 12 1
11804 29 6
11805 18 17
11805 19 16
11805 20 5
11806 28 1
11806 34 1
11807 4 3
11807 5 12
11807 38 14
11808 2 1
11808 31 6
11809 3 1
11810 26 5
11810 29 1
11810 38 1
11811 29 5
11811 31 4
11812 11 1
11812 20 1
11813 21 1
11814 31 4
11815 7 1
11816 28 4
11817 34 2
11818 12 1
11818 14 1
11818 18 12
11818 19 23
11818 20 7
11818 38 1
11819 4 3
11819 5 7
11819 38 12
11820 21 1
11821 10 1
11822 12 1
11822 22 1
11823 21 1
11824 15 1
11824 22 1
11825 38 1
11826 31 1
11827 8 1
11828 34 1
11829 12 5
11829 14 3
11830 29 2
11831 19 1
11832 22 1
11833 29 5
11833 30 1
11834 5 1
11835 1 1
11835 2 5
11835 3 16
11835 9 4
11835 10 7
11835 11 3
11835 34 15
11836 4 2
11836 5 11
11836 9 3
11836 10 8
11836 38 13
11837 12 1
11838 24 1
11839 2 2
11839 3 1
11839 24 1
11839 28 3
11839 29 3
11839 38 1
11840 2 1
11840 20 1
11840 31 6
11841 3 1
11841 19 1
11841 24 3
11842 12 1
11843 34 1
11844 26 1
11845 14 1
11846 15 2
11846 17 1
11847 19 1
11848 18 1
11849 2 1
11849 9 5
11849 10 8
11849 11 2
11850 3 1
11851 2 1
11851 11 1
11851 34 1
11852 38 1
11853 38 1
11854 10 1
11855 12 1
11856 3 1
11857 12 6
11858 26 3
11859 12 1
11860 10 1
11861 24 6
11862 15 5
11862 16 2
11862 17 6
11863 2 1
11863 3 3
11863 34 5
11864 29 7
11864 30 2
11865 29 1
11866 18 1
11867 29 5
11867 30 1
11868 2 1
11869 15 1
11870 19 2
11871 18 1
11872 31 8
11873 5 1
11873 34 1
11874 3 1
11875 2 1
11875 3 1
11875 7 2
11875 8 6
11875 38 1
11876 19 4
11876 20 3
11877 15 1
11878 20 1
11879 34 1
11880 22 1
11881 21 12
11881 22 10
11882 19 1
11883 34 1
11884 29 6
11884 34 2
11885 16 1
11886 8 1
11887 8 1
11887 31 1
11888 2 5
11888 3 38
11888 10 1
11888 31 11
11888 34 29
11889 22 1
11890 26 1
11890 29 3
11891 4 11
11891 5 6
11891 38 15
11892 7 1
11892 8 1
11893 29 1
11894 21 2
11894 22 1
11895 31 1
11896 22 1
11897 21 1
11898 3 1
11898 29 1
11899 2 1
11900 26 1
11901 2 7
11901 3 6
11901 24 7
11901 31 1
11901 34 8
11902 34 1
11903 8 1
11903 28 4
11904 28 7
11904 34 1
11905 2 9
11905 3 36
11905 34 32
11906 17 1
11907 10 1
11908 34 1
11909 19 1
11909 24 3
11910 3 1
11910 4 3
11910 5 19
11910 34 1
11910 38 13
11911 21 21
11911 22 11
11911 34 1
11912 3 1
11913 34 1
11914 22 1
11915 14 1
11916 4 5
11916 5 15
11916 38 16
11917 3 1
11918 29 1
11919 21 2
11920 3 1
11921 9 1
11921 34 1
11922 31 4
11922 33 1
11923 20 2
11924 3 1
11924 24 2
11925 24 2
11925 26 2
11925 29 4
11925 31 1
11926 3 1
11927 34 1
11927 38 1
11928 2 1
11928 11 1
11929 22 1
11929 38 1
11930 31 5
11931 3 1
11932 9 4
11932 10 8
11932 11 3
11933 19 1
11934 29 1
11935 5 1
11936 3 1
11937 10 1
11938 18 1
11939 19 1
11940 19 1
11941 38 1
11942 4 1
11942 14 1
11942 31 3
11943 12 1
11944 24 1
11945 14 1
11945 18 35
11945 19 30
11945 20 17
11946 4 11
11946 5 42
11946 12 7
11946 14 5
11946 38 45
11947 31 4
11948 12 1
11949 38 1
11950 20 1
11951 30 1
11952 29 13
11952 30 1
11952 31 11
11953 29 1
11954 10 1
11955 9 2
11955 10 4
11955 11 1
11955 18 5
11955 19 4
11955 20 2
11956 21 23
11956 22 13
11957 26 1
11958 29 1
11959 29 5
11959 30 1
11960 24 2
11961 29 8
11962 34 1
11963 34 1
11964 15 1
11965 22 5
11966 2 1
11966 34 2
11967 10 1
11967 21 1
11968 24 1
11969 3 1
11970 31 1
11972 29 5
11973 2 1
11974 21 1
11975 24 2
11976 18 1
11977 8 1
11978 26 4
11979 7 1
11980 5 1
11981 22 1
11982 24 4
11983 12 1
11984 4 1
11984 5 4
11984 38 7
11985 24 11
11985 34 1
11986 5 1
11987 24 1
11988 31 5
11989 12 1
11989 38 1
11990 24 7
11990 29 1
11991 20 1
11992 3 1
11992 15 26
11992 16 16
11992 17 22
11992 30 1
11993 7 14
11993 8 33
11993 29 3
11994 2 12
11994 3 12
11994 34 18
11995 18 1
11996 20 1
11996 29 1
11997 19 1
11997 38 1
11998 19 1
11999 3 1
12000 12 1
12001 29 25
12001 30 1
12002 12 28
12002 13 1
12002 14 16
12003 9 1
12004 18 4
12004 19 5
12004 20 7
12005 10 1
12006 26 1
12007 24 7
12008 34 1
12009 5 1
12010 18 1
12011 11 1
12012 5 1
12012 28 3
12012 34 1
12013 18 1
12013 19 1
12013 20 1
12014 24 14
12015 9 1
12016 9 1
12016 10 6
12016 11 6
12016 34 1
12017 18 1
12018 24 1
12018 29 17
12018 30 1
12019 24 1
12020 14 1
12020 24 2
12021 11 1
12022 18 1
12023 28 5
12024 34 1
12025 3 1
12025 7 1
12026 29 1
12027 19 1
12028 19 1
12028 28 2
12029 5 1
12030 25 1
12030 26 12
12031 22 1
12032 12 10
12032 14 4
12033 3 1
12034 38 1
12035 2 8
12035 3 8
12035 34 13
12036 2 4
12036 3 2
12036 34 10
12037 4 1
12038 19 1
12039 21 1
12040 10 1
12040 19 1
12041 24 1
12042 28 1
12043 24 5
12043 31 2
12044 18 2
12044 19 1
12044 20 1
12045 3 1
12046 28 6
12047 7 1
12047 18 1
12048 24 4
12048 29 4
12048 30 1
12048 31 3
12049 4 11
12049 5 47
12049 19 2
12049 38 59
12050 5 1
12051 3 1
12052 26 1
12053 38 1
12054 14 1
12055 34 1
12056 21 2
12057 5 1
12058 19 1
12059 1 3
12059 2 10
12059 3 20
12059 34 19
12060 10 1
12061 9 1
12062 2 1
12062 28 3
12063 29 10
12064 28 2
12065 34 1
12066 18 1
12067 3 1
12068 21 1
12069 14 1
12070 2 1
12070 3 8
12070 34 6
12071 34 1
12072 5 1
12073 29 1
12074 20 1
12074 21 1
12075 18 22
12075 19 23
12075 20 11
12076 31 1
12077 31 1
12078 29 4
12079 8 2
12080 26 1
12081 5 1
12082 28 4
12083 29 1
12084 18 1
12084 19 1
12084 20 2
12085 8 2
12086 10 1
12087 31 4
12089 34 1
12090 5 1
12091 15 1
12091 38 1
12092 3 1
12093 21 1
12094 5 1
12095 28 1
12096 2 5
12096 3 5
12096 34 4
12097 10 1
12097 15 3
12097 16 3
12097 17 1
12098 3 1
12099 7 4
12099 8 10
12100 24 1
12101 26 1
12102 19 1
12103 24 1
12103 38 1
12104 19 1
12105 4 1
12105 5 4
12105 38 3
12106 2 6
12106 3 10
12106 34 14
12107 29 1
12108 5 1
12108 29 4
12109 2 1
12110 28 1
12111 34 1
12112 3 1
12113 3 1
12114 5 1
12114 24 8
12115 3 1
12115 12 1
12116 11 1
12117 8 5
12117 9 1
12118 4 1
12118 29 1
12119 15 1
12120 2 16
12120 3 31
12120 34 42
12121 38 1
12122 5 1
12122 15 14
12122 16 7
12122 17 11
12123 12 2
12123 14 3
12123 34 1
12124 18 4
12125 31 3
12126 16 3
12126 17 1
12127 18 1
12128 3 1
12129 3 1
12129 21 1
12129 29 15
12130 34 1
12131 31 1
12132 3 2
12132 29 1
12132 38 1
12133 12 5
12133 14 3
12133 19 1
12133 20 1
12134 1 1
12134 2 14
12134 3 25
12134 28 5
12134 34 39
12135 12 14
12135 14 10
12136 10 1
12137 38 1
12138 5 1
12139 38 1
12140 18 1
12141 34 1
12142 19 1
12142 29 3
12142 38 1
12143 9 8
12143 10 8
12143 11 6
12144 2 1
12145 26 2
12145 38 1
12146 34 2
12147 34 1
12148 38 1
12149 38 1
12150 29 1
12150 38 1
12151 15 1
12151 16 1
12152 4 1
12153 29 16
12153 30 3
12154 22 1
12155 19 1
12155 29 1
12156 8 1
12156 15 1
12157 14 1
12158 2 1
12158 3 5
12158 34 6
12159 12 1
12160 9 1
12161 31 1
12162 18 2
12162 19 1
12162 20 1
12163 23 1
12163 24 1
12164 38 1
12165 31 4
12165 38 1
12166 19 1
12166 31 2
12167 4 2
12167 5 2
12167 38 5
12168 12 1
12168 14 1
12168 21 2
12168 22 2
12169 21 1
12170 7 18
12170 8 8
12171 29 1
12172 5 1
12172 15 1
12173 5 1
12174 2 1
12174 3 2
12175 4 1
12175 5 6
12175 38 6
12176 34 1
12177 19 1
12178 3 1
12178 9 1
12178 10 1
12178 15 1
12179 24 3
12180 8 1
12180 28 2
12181 5 1
12181 38 2
12182 5 1
12183 17 1
12184 21 11
12184 22 3
12185 16 1
12186 2 1
12187 3 1
12187 9 1
12188 31 2
12189 34 1
12190 10 1
12191 21 1
12192 3 1
12193 24 6
12194 5 1
12195 24 1
12196 19 1
12197 20 1
12198 29 7
12198 30 1
12199 2 2
12199 3 3
12199 34 2
12200 21 1
12201 3 1
12202 24 2
12203 2 3
12203 3 3
12203 5 1
12203 34 3
12204 17 1
12205 22 1
12206 28 4
12207 24 1
12208 38 1
12209 3 1
12210 3 1
12210 24 11
12211 24 1
12211 31 2
12212 7 3
12212 8 3
12213 4 2
12213 5 1
12213 18 2
12213 19 7
12213 20 2
12213 38 3
12214 1 2
12214 2 6
12214 3 6
12214 34 5
12215 2 1
12216 21 6
12216 22 5
12217 3 1
12218 4 2
12218 5 6
12218 15 2
12218 16 2
12218 17 2
12218 18 7
12218 19 10
12218 20 4
12218 38 3
12219 2 1
12219 3 1
12219 29 2
12220 3 1
12221 18 1
12221 19 1
12221 20 1
12222 5 1
12223 24 10
12224 38 1
12225 2 1
12226 2 1
12226 15 1
12226 18 1
12226 19 1
12226 38 1
12227 31 1
12228 24 1
12229 4 1
12229 5 4
12229 22 1
12229 38 7
12230 38 1
12231 17 1
12232 28 4
12232 38 1
12233 3 1
12234 26 1
12235 2 1
12235 3 1
12236 2 7
12236 3 6
12236 24 4
12236 26 1
12236 29 1
12236 34 3
12237 38 1
12238 8 1
12239 9 1
12239 11 1
12240 21 1
12241 7 2
12241 8 4
12242 5 1
12243 17 1
12244 34 1
12245 9 1
12245 10 6
12245 11 2
12246 18 10
12246 19 12
12246 20 6
12246 38 1
12247 29 5
12248 19 1
12249 5 1
12249 21 23
12249 22 22
12250 8 2
12251 38 1
12252 14 1
12252 18 1
12253 3 1
12253 19 1
12254 31 4
12255 31 1
12256 34 1
12257 18 5
12257 19 3
12257 20 4
12258 17 1
12259 31 7
12260 29 3
12261 19 1
12262 34 1
12263 28 1
12263 34 1
12264 4 7
12264 5 22
12264 38 25
12265 20 1
12265 34 1
12266 34 1
12267 3 1
12268 19 1
12268 20 2
12269 34 1
12270 24 9
12271 31 2
12272 21 9
12272 22 7
12273 38 1
12274 12 30
12274 14 24
12275 31 1
12276 1 1
12276 2 5
12276 3 6
12276 31 1
12276 34 3
12277 3 1
12277 18 1
12278 24 1
12279 4 1
12279 31 1
12280 38 1
12281 21 19
12281 22 16
12282 12 1
12283 24 10
12284 5 3
12284 19 1
12284 38 7
12285 34 1
12286 34 1
12287 29 1
12288 28 2
12289 10 1
12289 19 1
12290 24 1
12291 4 2
12291 5 29
12291 38 25
12292 24 6
12293 3 1
12294 21 4
12294 22 2
12294 24 1
12295 34 1
12296 15 1
12296 16 2
12297 5 1
12297 31 17
12298 8 1
12299 26 1
12299 29 1
12300 19 1
12301 22 1
12302 12 10
12302 13 2
12302 14 5
12303 5 3
12303 38 1
12304 15 3
12304 16 2
12305 28 3
12306 29 1
12307 34 1
12308 26 4
12309 24 3
12309 30 1
12310 30 1
12311 15 1
12312 34 1
12313 29 1
12314 20 1
12315 4 4
12315 5 10
12315 38 17
12316 22 1
12317 9 5
12317 10 18
12317 11 11
12318 26 1
12319 38 1
12320 12 2
12320 14 2
12320 18 1
12321 28 1
12322 9 1
12323 4 1
12323 5 8
12323 24 1
12323 38 11
12324 17 1
12325 4 1
12325 5 2
12325 12 1
12325 38 5
12326 34 1
12327 3 1
12327 38 1
12328 38 1
12329 24 10
12330 21 1
12331 24 19
12332 38 1
12333 24 4
12334 9 2
12334 10 2
12334 26 1
12334 31 2
12334 33 1
12335 12 1
12335 15 1
12336 29 1
12337 28 2
12338 31 8
12338 34 1
12339 28 1
12340 9 9
12340 10 18
12340 11 8
12340 16 2
12340 18 2
12340 19 4
12341 3 1
12341 21 15
12341 22 14
12341 38 1
12342 10 2
12342 11 2
12342 14 3
12342 18 7
12342 19 7
12342 20 1
12343 9 2
12343 10 3
12343 11 1
12344 8 1
12345 19 1
12346 34 1
12347 28 1
12348 2 1
12349 9 1
12350 5 1
12351 38 1
12352 29 1
12353 4 2
12353 5 14
12353 38 14
12354 38 1
12355 26 1
12356 8 1
12357 15 1
12358 2 1
12358 34 1
12359 3 1
12360 5 1
12360 9 2
12360 10 8
12360 11 7
12360 24 1
12361 12 2
12361 14 1
12361 34 1
12362 11 1
12363 34 1
12364 34 2
12365 5 1
12366 18 1
12367 34 1
12368 8 1
12369 38 1
12370 4 1
12370 5 4
12370 38 3
12371 18 2
12371 19 8
12372 38 1
12373 8 1
12374 3 1
12375 7 1
12376 18 1
12377 18 1
12378 38 1
12379 24 1
12380 29 3
12381 29 1
12382 24 1
12383 28 3
12383 29 4
12383 30 1
12384 5 1
12384 24 1
12385 15 2
12385 16 3
12385 17 1
12386 18 1
12386 19 1
12387 2 1
12388 21 1
12389 24 3
12389 29 3
12389 30 1
12390 28 1
12391 2 1
12391 24 1
12392 12 8
12392 14 7
12392 34 1
12393 12 20
12393 13 1
12393 14 12
12394 2 1
12395 3 2
12396 29 4
12397 21 1
12398 3 1
12399 24 13
12400 29 1
12401 2 16
12401 3 24
12401 34 17
12402 5 13
12402 7 16
12402 8 14
12402 38 7
12403 5 1
12404 24 3
12405 24 8
12406 21 13
12406 22 6
12407 3 2
12408 10 5
12408 11 1
12408 12 1
12409 7 6
12409 8 8
12409 18 10
12409 29 1
12410 38 1
12411 21 10
12411 22 6
12411 29 1
12412 4 1
12412 5 3
12413 1 1
12413 2 5
12413 3 12
12413 24 1
12413 34 13
12414 19 1
12415 29 1
12416 38 5
12417 18 1
12418 34 1
12419 21 1
12420 2 1
12420 28 4
12421 7 4
12421 8 5
12421 9 16
12421 10 25
12421 11 9
12421 34 2
12422 11 1
12423 20 1
12424 28 1
12425 8 1
12425 24 1
12426 30 1
12427 18 1
12428 12 1
12428 14 1
12429 9 3
12429 10 3
12429 11 3
12429 34 1
12430 21 16
12430 22 13
12431 29 2
12431 30 1
12432 8 1
12433 38 1
12434 24 1
12435 11 1
12436 3 1
12437 5 2
12437 38 1
12438 21 1
12439 1 1
12439 2 12
12439 3 34
12439 34 31
12440 34 1
12441 11 1
12441 18 5
12441 19 9
12441 20 3
12442 2 1
12443 18 1
12444 29 1
12445 24 5
12446 12 6
12447 15 1
12448 28 4
12449 23 1
12449 24 13
12450 24 11
12451 5 1
12452 24 4
12453 4 4
12453 5 12
12453 31 1
12453 38 12
12454 2 16
12454 3 31
12454 34 30
12455 26 1
12456 24 8
12457 2 1
12458 38 1
12459 2 15
12459 3 15
12459 34 27
12460 38 1
12461 3 1
12462 34 1
12463 19 1
12464 34 1
12465 24 1
12466 10 1
12467 5 1
12467 19 1
12467 38 2
12468 18 13
12468 19 8
12468 20 9
12469 19 1
12470 29 2
12470 30 1
12471 8 1
12471 17 1
12471 19 1
12471 29 1
12472 7 8
12472 8 12
12473 34 1
12474 24 2
12475 2 1
12476 8 1
12476 21 4
12477 29 3
12477 30 1
12478 24 1
12479 21 8
12479 22 4
12480 10 1
12481 19 1
12482 12 6
12483 26 1
12484 19 1
12485 21 1
12486 21 18
12486 22 14
12487 26 1
12488 31 1
12489 24 1
12490 34 1
12491 24 3
12492 2 1
12492 7 6
12492 8 1
12493 38 1
12494 11 1
12495 25 1
12496 10 2
12496 11 1
12497 2 1
12498 38 1
12499 34 1
12500 3 1
12500 34 2
12501 15 5
12501 16 1
12501 17 1
12502 3 1
12503 14 1
12503 29 1
12504 18 1
12504 21 2
12505 21 1
12506 18 1
12507 14 1
12507 21 1
12507 22 1
12508 5 1
12509 18 11
12509 19 11
12509 20 3
12510 18 5
12510 19 7
12510 20 1
12511 23 1
12511 24 4
12512 24 2
12513 24 1
12514 18 45
12514 19 65
12514 20 23
12515 19 1
12516 38 1
12517 19 1
12518 7 1
12518 8 1
12519 22 1
12520 21 14
12520 22 5
12521 9 3
12521 10 5
12521 11 1
12522 12 1
12523 7 3
12523 8 3
12524 2 8
12524 3 18
12524 34 37
12525 24 1
12526 18 22
12526 19 19
12526 20 16
12527 29 1
12528 3 2
12529 18 1
12530 24 1
12531 21 1
12532 18 1
12532 20 1
12533 38 1
12534 18 3
12534 19 8
12534 20 3
12535 2 1
12536 34 1
12537 34 1
12538 34 1
12539 31 1
12540 12 1
12540 21 1
12540 25 1
12541 3 1
12541 21 1
12542 38 1
12543 38 1
12544 3 1
12545 24 4
12546 38 1
12547 38 1
12548 10 1
12549 34 1
12550 5 2
12550 38 1
12551 9 3
12551 10 6
12551 11 4
12551 34 1
12552 19 1
12553 22 1
12554 5 5
12554 24 1
12554 38 2
12555 5 1
12556 18 20
12556 19 26
12556 20 12
12557 19 1
12558 29 1
12559 4 3
12559 5 3
12559 24 1
12559 38 5
12560 2 1
12560 3 2
12560 34 3
12561 38 1
12562 2 1
12562 4 7
12562 5 12
12562 38 10
12563 8 2
12564 22 1
12565 4 1
12566 29 1
12567 9 1
12567 10 1
12567 11 2
12568 3 3
12568 34 5
12569 34 1
12570 34 1
12571 19 1
12572 12 14
12572 14 13
12573 3 1
12574 4 1
12574 24 1
12574 38 1
12575 7 3
12575 8 5
12576 17 1
12577 17 1
12578 7 1
12578 38 1
12579 15 1
12579 16 1
12580 31 1
12581 1 1
12581 2 23
12581 3 61
12581 5 1
12581 34 83
12582 11 1
12582 24 1
12583 34 1
12584 18 1
12585 21 1
12586 2 1
12587 34 1
12588 24 1
12588 28 1
12589 1 1
12589 2 5
12589 3 9
12589 20 1
12589 34 15
12590 34 1
12591 2 4
12591 3 7
12591 34 15
12592 2 1
12593 29 10
12594 11 1
12595 24 13
12596 34 1
12597 3 1
12598 9 2
12598 10 3
12598 11 1
12598 38 1
12599 34 1
12600 21 7
12600 22 5
12601 3 1
12602 4 2
12602 5 11
12602 38 18
12603 38 1
12604 24 6
12604 28 3
12605 19 1
12606 4 1
12606 5 5
12606 38 6
12607 21 1
12608 31 4
12609 21 11
12609 22 6
12610 24 9
12611 24 4
12612 22 1
12613 5 5
12613 34 1
12613 38 6
12614 2 1
12615 22 1
12616 34 1
12617 9 1
12618 15 1
12619 22 1
12619 29 1
12619 30 1
12619 38 1
12620 24 3
12621 1 1
12621 2 12
12621 3 11
12621 34 30
12622 4 1
12622 5 1
12623 24 1
12623 29 13
12624 12 2
12624 14 2
12624 21 1
12625 9 1
12625 24 17
12626 22 1
12627 4 2
12628 16 1
12628 17 1
12629 8 2
12630 3 1
12630 4 3
12630 5 22
12630 34 1
12630 38 21
12631 31 5
12632 34 1
12633 34 1
12634 19 1
12634 26 1
12635 16 1
12636 38 1
12637 18 3
12637 19 4
12637 20 1
12638 34 1
12639 5 2
12640 31 6
12641 29 1
12641 31 2
12642 5 1
12643 24 1
12644 19 1
12645 15 14
12645 16 7
12645 17 10
12646 31 3
12647 17 1
12647 38 1
12648 19 2
12649 16 1
12649 17 1
12649 38 1
12650 15 1
12651 29 4
12652 4 7
12652 5 20
12652 19 1
12652 22 1
12652 38 24
12653 2 1
12654 11 1
12655 18 1
12656 7 30
12656 8 48
12657 24 2
12658 34 1
12659 8 1
12660 34 1
12661 24 1
12661 31 7
12662 24 1
12663 3 1
12664 26 1
12665 38 1
12666 31 4
12666 34 1
12667 26 1
12668 1 1
12668 2 13
12668 3 22
12668 34 39
12669 2 1
12670 4 1
12670 5 8
12670 21 1
12670 38 13
12671 24 1
12672 17 1
12673 5 2
12673 38 1
12674 3 1
12674 19 1
12674 28 3
12674 34 4
12675 7 1
12676 18 1
12677 18 1
12677 19 4
12678 2 4
12678 3 3
12678 10 1
12678 31 3
12678 34 7
12679 21 5
12679 22 8
12680 2 1
12680 31 1
12681 11 1
12681 21 1
12682 18 1
12683 18 18
12683 19 19
12683 20 9
12684 31 2
12685 2 1
12685 19 2
12686 12 1
12687 24 12
12688 2 3
12688 3 1
12688 29 2
12688 34 4
12689 19 1
12690 9 3
12690 10 4
12690 11 2
12691 1 1
12691 2 5
12691 3 6
12691 34 17
12692 34 1
12693 3 1
12694 31 2
12695 12 1
12696 2 1
12696 31 1
12697 8 1
12698 4 4
12698 5 34
12698 38 39
12699 18 43
12699 19 44
12699 20 14
12700 10 1
12701 3 1
12702 7 6
12702 8 9
12703 34 1
12704 5 1
12705 26 1
12706 9 1
12707 24 2
12708 9 1
12709 31 1
12710 7 1
12711 28 4
12712 31 1
12713 10 1
12713 29 1
12714 5 1
12715 20 1
12715 34 1
12716 34 1
12717 34 1
12718 24 5
12719 3 1
12720 4 4
12720 5 18
12720 38 16
12721 38 1
12722 20 1
12723 12 1
12724 5 1
12724 38 1
12725 5 1
12726 22 1
12727 38 1
12728 29 10
12728 30 1
12729 8 1
12729 21 8
12729 22 5
12730 31 1
12731 7 1
12731 34 1
12732 9 1
12732 10 5
12732 11 1
12733 10 2
12734 22 1
12735 21 1
12735 24 13
12735 29 1
12736 9 1
12736 11 1
12736 21 1
12736 34 1
12737 3 1
12737 15 2
12737 16 2
12738 3 1
12738 31 1
12739 24 1
12740 11 1
12740 24 15
12741 15 1
12742 5 1
12743 12 1
12744 3 1
12744 4 9
12744 5 40
12744 38 40
12745 10 1
12746 4 1
12746 9 8
12746 10 12
12746 11 7
12747 2 1
12748 19 1
12749 16 1
12750 29 1
12751 34 1
12752 18 1
12753 10 1
12754 18 1
12755 18 28
12755 19 24
12755 20 5
12756 18 1
12757 29 1
12758 31 28
12759 19 1
12760 5 1
12761 38 1
12762 2 1
12763 2 3
12763 3 2
12763 5 1
12763 34 5
12764 5 1
12765 3 1
12766 34 1
12767 38 1
12768 28 2
12769 3 1
12769 12 2
12769 24 1
12770 19 1
12771 21 1
12772 9 13
12772 10 17
12772 11 9
12772 18 1
12773 9 1
12773 38 1
12774 34 1
12775 2 4
12775 3 8
12775 34 4
12776 3 1
12776 24 1
12777 34 1
12778 15 1
12779 24 5
12780 34 1
12781 22 28
12782 5 1
12782 26 4
12783 29 7
12783 30 3
12784 10 1
12785 3 1
12785 24 9
12785 29 4
12786 18 1
12787 29 1
12788 22 1
12789 19 1
12790 2 15
12790 3 18
12790 34 16
12791 2 4
12791 3 6
12791 31 1
12791 34 10
12792 26 4
12792 34 1
12793 28 1
12794 4 13
12794 5 40
12794 38 63
12795 29 2
12796 15 1
12797 5 1
12798 7 5
12798 8 4
12798 26 1
12799 31 1
12800 21 1
12801 16 1
12802 3 1
12802 15 9
12802 16 9
12802 17 12
12802 31 1
12803 24 10
12803 29 3
12804 7 1
12805 15 7
12805 16 1
12805 17 1
12806 5 2
12806 34 2
12806 38 2
12807 5 1
12807 38 1
12808 29 7
12808 30 1
12809 3 1
12810 15 1
12811 3 1
12811 7 1
12811 8 1
12812 34 1
12813 3 1
12813 34 2
12814 20 1
12815 18 31
12815 19 26
12815 20 11
12816 19 1
12817 19 1
12817 20 1
12818 34 1
12819 15 1
12819 16 1
12820 18 44
12820 19 35
12820 20 5
12820 34 1
12821 9 5
12821 10 7
12821 11 4
12822 2 19
12822 3 45
12822 20 1
12822 26 1
12822 34 61
12823 5 1
12823 19 1
12823 20 1
12824 21 1
12825 28 3
12825 38 1
12826 31 10
12827 38 1
12828 1 2
12828 2 2
12828 3 4
12828 34 11
12829 12 1
12830 31 5
12831 2 1
12832 4 1
12832 5 6
12832 9 1
12832 38 6
12833 2 8
12833 3 5
12833 34 11
12834 20 1
12835 20 1
12835 21 7
12835 22 8
12836 14 1
12837 31 1
12838 29 1
12839 38 1
12840 12 14
12840 14 6
12841 26 1
12841 29 1
12842 38 1
12843 29 1
12844 3 1
12845 24 14
12846 22 1
12847 31 2
12848 25 1
12848 26 2
12849 9 1
12850 3 1
12850 12 5
12851 16 1
12852 10 1
12853 10 1
12854 3 1
12855 18 1
12856 29 1
12857 8 1
12858 29 28
12858 30 1
12859 2 1
12860 29 1
12861 1 1
12861 2 19
12861 3 13
12861 11 1
12861 34 24
12862 38 1
12863 38 2
12864 22 1
12865 12 31
12865 13 1
12865 14 20
12866 29 1
12867 29 1
12868 28 1
12869 3 1
12870 3 1
12871 18 1
12872 28 1
12873 5 1
12873 29 1
12874 12 36
12874 14 33
12874 24 1
12875 3 1
12876 12 1
12877 17 1
12878 18 1
12878 19 2
12879 34 1
12880 2 16
12880 3 23
12880 29 9
12880 30 1
12880 34 21
12881 21 1
12881 22 3
12882 28 1
12883 12 1
12884 2 1
12884 3 2
12884 34 1
12884 38 1
12885 15 2
12885 16 4
12885 17 1
12885 34 1
12886 2 1
12886 28 2
12887 12 15
12887 14 7
12888 24 20
12889 34 1
12890 2 6
12890 3 8
12890 34 14
12891 24 1
12892 38 1
12893 24 3
12894 11 1
12894 21 2
12894 22 2
12894 38 1
12895 3 1
12896 4 3
12896 5 6
12896 38 9
12897 31 1
12898 38 1
12899 4 6
12899 5 21
12899 38 23
12900 14 1
12901 3 1
12901 34 1
12902 21 1
12903 19 1
12904 26 2
12905 21 1
12906 2 4
12906 3 10
12906 29 8
12906 34 6
12907 29 9
12908 3 1
12909 34 1
12910 10 1
12910 24 1
12910 38 1
12911 9 7
12911 10 8
12911 11 4
12911 14 1
12911 15 2
12911 17 2
12912 4 1
12913 9 1
12914 34 1
12915 31 7
12916 3 1
12917 5 1
12918 3 1
12919 29 1
12920 38 1
12921 29 3
12922 18 1
12923 4 8
12923 5 28
12923 38 39
12924 26 1
12925 34 1
12926 19 1
12927 31 1
12928 4 2
12928 5 24
12928 18 4
12928 19 5
12928 20 2
12928 38 18
12929 12 3
12930 24 1
12931 19 1
12932 12 3
12932 14 4
12932 21 38
12932 22 32
12932 38 1
12933 15 1
12934 3 1
12935 1 1
12935 2 1
12935 3 3
12935 12 1
12935 28 1
12935 34 4
12936 31 5
12937 15 1
12937 26 8
12938 7 1
12939 3 1
12939 29 5
12939 30 2
12940 5 1
12941 7 2
12941 8 4
12942 34 1
12943 3 1
12944 3 1
12944 34 1
12945 34 1
12946 12 1
12947 18 1
12948 9 1
12948 10 2
12948 11 1
12949 19 2
12950 4 2
12950 5 7
12950 18 3
12950 19 2
12950 20 2
12950 38 10
12951 5 1
12952 21 21
12952 22 10
12953 28 4
12954 22 1
12955 21 1
12956 18 8
12956 19 3
12956 20 1
12956 29 1
