%%MatrixMarket matrix coordinate real general
%
20844 38 39072                                                    
1 5 1
1 22 1
2 26 1
3 29 1
4 29 4
5 16 1
6 34 1
7 2 8
7 3 7
7 18 1
7 34 4
8 31 4
9 34 1
10 3 1
11 29 20
11 30 2
12 1 1
12 2 14
12 3 32
12 34 44
13 18 1
13 31 6
13 32 1
14 31 8
14 34 1
14 38 1
15 3 1
15 24 1
15 29 1
15 34 1
16 2 1
16 14 1
16 38 1
17 34 1
18 7 1
18 8 1
19 5 1
20 5 2
20 22 1
20 24 1
20 31 18
21 21 1
21 24 7
21 38 1
22 3 1
22 10 1
22 12 4
22 14 4
23 4 1
23 5 18
23 22 1
23 24 3
23 38 34
24 29 1
25 29 4
25 30 1
25 34 1
26 13 1
26 14 5
26 24 17
27 34 1
28 18 1
29 21 1
29 29 31
29 30 3
30 29 3
31 3 1
32 4 1
32 5 6
32 38 2
33 3 1
34 2 1
34 8 1
34 38 1
35 31 1
36 3 1
36 5 8
36 31 2
36 38 5
37 4 1
37 34 1
37 38 4
38 2 2
38 3 2
38 31 1
39 3 1
40 5 1
41 12 9
41 14 2
42 3 1
42 4 4
42 5 5
42 38 5
43 7 1
44 2 3
44 3 7
44 34 7
45 26 1
46 18 7
46 19 9
46 20 3
47 28 3
48 24 1
49 7 5
49 8 12
50 24 1
50 29 4
51 2 2
51 34 2
52 14 1
53 12 1
53 20 1
54 28 4
55 34 1
56 4 1
57 5 1
58 29 1
59 31 1
60 8 1
61 12 1
62 22 1
62 29 3
62 30 2
63 12 2
64 34 1
65 26 1
66 2 4
66 3 11
66 34 8
67 29 2
68 22 1
69 2 9
69 3 11
69 34 19
70 7 4
70 8 5
70 16 1
70 31 7
71 17 1
72 3 1
73 26 3
74 19 1
75 34 1
76 7 3
76 8 3
77 5 1
77 26 1
78 9 1
78 10 1
79 21 4
79 22 4
80 29 12
81 18 4
81 19 9
81 20 7
82 24 1
82 28 1
82 34 1
83 2 1
83 4 3
83 5 2
83 38 9
84 29 6
84 30 1
85 2 1
85 12 3
85 14 4
86 2 1
86 18 1
86 24 1
87 4 4
87 5 9
87 24 7
87 29 2
87 38 11
88 3 1
88 24 2
89 2 1
90 34 1
91 24 14
92 24 2
93 23 1
93 24 17
94 18 1
95 31 5
96 34 1
97 34 1
98 3 1
99 28 1
100 26 1
101 10 1
101 16 1
101 34 1
103 29 6
104 24 17
105 1 1
105 2 12
105 3 20
105 4 1
105 34 21
106 29 2
106 30 1
107 4 1
107 5 1
107 38 2
108 21 12
108 22 10
109 5 1
109 17 1
110 15 1
110 21 1
110 28 1
111 2 1
112 29 8
113 21 1
114 24 1
115 24 1
116 16 1
117 9 1
118 24 17
119 24 1
120 34 1
121 29 14
122 26 1
123 2 1
123 24 1
123 34 1
124 5 1
124 19 1
124 24 16
124 29 1
125 10 2
126 29 9
127 29 1
128 2 31
128 3 56
128 21 1
128 34 69
128 38 2
129 38 1
130 2 1
130 26 1
131 28 1
132 19 1
132 24 1
133 10 1
133 24 6
134 23 1
134 24 18
134 34 1
135 19 1
136 28 1
137 19 1
137 20 1
138 2 1
138 29 6
139 38 1
140 16 1
141 2 1
141 3 6
141 34 3
142 12 4
142 14 1
143 4 3
143 5 13
143 19 1
143 38 15
144 16 1
145 7 7
145 8 22
145 22 1
146 2 6
146 3 18
146 34 27
147 9 1
148 11 1
148 18 1
148 24 1
149 17 2
150 9 1
151 3 1
152 18 9
152 19 9
152 20 2
153 4 5
153 5 16
153 38 11
154 12 3
154 13 1
154 14 5
155 29 1
156 34 1
157 2 1
158 31 6
159 3 1
159 34 1
160 5 1
160 24 4
161 18 3
161 19 5
162 29 3
162 30 1
163 12 1
163 28 2
164 34 1
165 2 1
166 24 1
166 29 12
166 30 2
167 38 1
168 2 6
168 3 6
168 34 11
169 29 1
170 3 1
170 9 6
170 10 12
170 11 7
171 12 11
171 14 4
172 4 1
172 5 1
172 19 1
173 12 2
174 29 9
174 30 1
175 3 1
176 2 8
176 3 13
176 18 1
176 19 1
176 31 1
176 34 18
177 15 4
177 16 1
177 17 7
178 29 9
179 3 1
180 3 1
181 15 1
181 30 1
182 2 1
182 12 3
182 14 3
183 2 1
183 31 1
184 24 18
185 4 1
186 18 2
186 19 2
187 13 1
188 15 1
189 14 1
190 14 1
190 19 1
191 29 1
192 26 1
193 24 1
194 8 1
194 11 1
195 7 6
195 8 14
196 14 1
197 34 1
198 25 1
198 26 7
199 29 5
200 18 14
200 19 34
200 20 9
200 34 1
201 24 1
202 23 2
202 24 3
203 9 1
203 10 7
203 11 5
203 34 1
204 1 1
204 2 35
204 3 42
204 21 2
204 29 5
204 34 67
205 24 1
206 9 1
206 34 1
207 2 9
207 3 10
207 34 8
208 12 1
208 23 2
208 24 25
209 1 1
209 2 18
209 3 14
209 34 26
210 31 6
211 34 2
212 28 7
212 31 6
213 7 1
213 24 6
214 5 1
215 17 1
216 5 1
217 5 1
217 8 1
217 18 1
217 34 1
218 24 1
219 5 1
220 4 5
220 5 22
220 15 4
220 38 24
221 2 10
221 3 15
221 25 1
221 26 4
221 34 12
222 28 2
223 3 1
224 34 1
225 14 1
226 3 1
226 4 1
226 26 1
226 34 1
227 2 2
227 19 1
228 31 2
229 5 1
230 26 3
230 29 1
231 22 1
232 4 4
232 5 31
232 21 1
232 38 36
233 12 1
234 8 1
234 28 3
234 29 1
234 34 1
235 34 1
236 12 4
236 14 1
237 12 1
238 24 8
239 4 1
239 5 2
239 27 1
240 10 1
241 29 1
242 12 2
243 10 1
243 30 1
244 12 2
244 13 1
244 17 1
244 18 7
244 19 13
244 34 1
245 16 1
245 29 11
246 5 5
246 15 4
246 16 3
246 17 2
246 38 2
247 5 3
247 38 5
248 1 1
248 2 15
248 3 34
248 34 31
249 3 1
249 18 1
249 21 15
249 22 15
250 5 7
250 38 1
251 24 1
252 5 1
253 5 1
253 11 1
254 4 3
254 5 23
254 38 26
255 4 1
255 5 8
255 38 6
256 3 1
257 29 1
257 30 1
258 1 1
258 2 14
258 3 19
258 34 31
258 38 1
259 9 1
260 12 1
260 24 4
261 5 1
262 12 1
263 4 1
264 25 1
264 26 2
264 34 1
265 38 1
266 4 3
266 5 20
266 21 1
266 38 17
267 29 1
268 1 1
268 2 18
268 3 14
268 10 1
268 24 3
268 29 13
268 30 2
268 34 30
269 3 1
269 5 1
269 9 1
269 18 1
269 19 2
269 22 1
269 24 1
269 31 1
269 34 2
269 38 1
270 4 8
270 5 22
270 38 36
271 18 1
272 18 15
272 19 21
272 20 9
273 29 1
274 26 3
275 31 1
276 24 6
277 5 2
277 25 1
277 26 12
277 38 1
278 18 1
279 9 1
279 10 3
280 18 1
281 4 3
281 5 11
281 24 1
281 38 10
282 38 1
283 2 1
283 5 1
284 25 1
284 26 2
284 29 1
285 5 1
286 7 9
286 8 16
286 24 1
286 38 1
287 34 1
288 16 1
289 4 1
289 9 8
289 10 8
289 11 3
289 15 6
289 16 7
289 17 14
289 38 3
290 15 1
291 29 3
292 18 1
293 2 1
293 3 1
294 10 1
295 5 1
295 15 1
295 28 2
296 18 1
296 29 6
297 14 1
298 3 1
299 5 3
299 12 2
299 14 3
299 21 1
299 38 8
300 10 1
300 38 1
301 24 1
301 28 3
301 31 1
301 38 1
302 34 1
302 38 1
303 31 14
304 22 1
305 9 1
306 19 1
307 21 2
307 22 1
307 34 1
308 21 1
309 29 35
309 30 3
310 3 2
310 29 1
310 34 1
311 9 3
311 10 16
311 11 2
311 34 1
312 24 5
313 5 1
314 24 1
314 31 3
315 9 4
315 10 7
315 11 8
316 10 1
317 24 14
318 19 1
319 29 20
320 24 15
321 4 1
321 5 4
321 38 1
322 4 4
322 5 14
322 38 22
323 30 1
324 21 4
324 22 2
325 2 4
325 3 10
325 29 4
325 34 9
326 29 2
327 3 1
328 2 1
328 18 1
328 19 2
328 20 2
329 28 7
330 3 1
330 26 1
331 1 1
331 2 11
331 3 11
331 34 14
332 34 1
333 9 1
333 29 1
333 34 1
334 4 1
335 3 1
335 31 3
335 38 1
336 24 1
337 31 4
338 5 1
338 9 3
338 10 11
338 11 7
339 2 1
339 26 3
340 2 2
340 3 5
340 4 7
340 5 31
340 34 6
340 38 41
341 9 5
341 10 12
341 11 7
342 9 1
343 20 1
344 29 5
344 31 1
345 11 1
346 29 1
347 29 1
348 9 3
348 10 6
348 11 6
348 20 1
349 20 1
350 4 8
350 5 23
350 38 29
351 2 1
352 19 1
352 29 20
352 30 1
353 28 3
354 3 2
355 3 1
356 29 1
357 21 1
358 18 1
359 8 1
360 38 1
361 31 6
362 8 1
363 22 1
364 12 1
365 7 1
365 10 1
365 11 1
366 4 4
366 5 15
366 38 20
367 11 1
367 22 1
368 12 3
368 14 2
369 1 2
369 2 10
369 3 39
369 34 25
370 29 6
371 34 1
372 7 1
373 24 4
374 24 1
375 25 1
375 26 13
375 31 3
376 11 1
376 24 4
377 29 1
378 15 9
378 16 6
378 17 8
379 3 1
380 29 1
381 1 2
381 2 6
381 3 6
381 22 1
381 24 4
381 34 17
382 26 1
383 29 1
384 18 7
384 19 9
384 20 4
385 11 1
385 18 1
385 21 5
385 22 1
385 28 1
385 29 10
386 26 4
387 34 1
388 7 1
389 1 4
389 2 21
389 3 48
389 24 2
389 34 59
390 38 1
391 12 2
392 23 1
392 24 5
393 28 1
394 5 1
394 16 1
395 3 1
396 3 1
397 34 1
398 8 1
399 10 1
399 26 1
400 26 1
401 5 1
402 21 1
403 15 3
403 17 2
404 21 15
404 22 10
405 16 1
406 22 1
407 2 8
407 3 15
407 20 1
407 34 27
408 15 1
409 21 1
409 31 4
409 34 1
410 18 5
410 19 2
410 20 2
411 21 1
412 21 16
412 22 9
413 24 1
413 28 9
413 29 1
414 15 1
415 22 1
416 1 1
417 3 1
417 5 1
417 7 9
417 8 11
417 12 1
418 31 1
419 24 1
419 26 1
420 24 20
420 28 1
421 7 1
421 8 1
421 19 1
422 12 1
423 3 1
424 4 1
424 21 1
424 29 7
424 30 1
425 3 1
425 8 1
425 24 31
427 28 2
428 9 5
428 10 9
428 11 2
429 24 1
430 22 1
431 7 2
431 8 10
432 22 1
433 26 1
434 22 1
435 25 1
436 20 1
437 24 1
438 29 1
439 16 1
440 24 3
441 24 1
442 38 1
443 19 1
443 24 3
444 2 2
444 34 1
445 7 2
445 8 2
445 38 1
446 19 1
447 16 1
448 34 1
449 2 18
449 3 30
449 4 1
449 5 6
449 34 14
449 38 6
450 2 14
450 3 26
450 29 1
450 34 33
451 18 3
451 19 4
451 20 3
452 2 2
452 3 1
452 29 11
452 34 1
453 4 1
453 5 7
453 38 14
454 4 1
455 5 2
455 10 1
455 11 1
455 38 1
456 28 4
457 18 5
457 19 3
457 20 2
458 2 1
459 4 9
459 5 37
459 38 59
460 34 1
461 4 2
461 5 7
461 38 9
462 3 1
463 12 2
463 14 1
464 18 5
464 19 8
464 20 1
465 3 1
466 1 2
466 2 9
466 3 12
466 4 1
466 5 4
466 15 1
466 24 1
466 34 26
466 38 7
467 34 1
468 4 1
468 5 7
468 38 6
469 5 1
470 3 1
471 3 1
472 2 3
472 3 6
472 34 6
472 38 1
473 16 1
473 29 2
474 31 1
475 12 15
475 14 6
476 29 1
477 1 1
477 17 1
477 24 8
478 2 1
479 5 1
480 34 1
481 12 1
482 3 1
483 31 1
484 31 1
485 26 12
486 34 1
487 7 3
487 8 3
487 34 1
488 15 2
489 29 1
490 29 1
491 24 1
492 30 1
493 5 1
493 12 17
493 13 1
493 14 11
493 34 1
494 21 17
494 22 11
495 24 1
496 29 6
497 9 1
498 3 1
499 24 1
500 4 1
501 22 1
502 2 1
502 3 2
502 24 4
502 34 3
503 18 1
504 18 22
504 19 17
504 20 7
505 7 2
505 8 3
505 21 4
505 22 6
505 29 1
506 10 1
506 29 2
506 30 1
507 24 19
508 12 4
508 18 15
508 19 23
508 20 8
509 24 1
510 24 11
510 26 11
511 23 1
511 24 7
512 21 3
512 22 2
513 21 1
513 26 7
514 24 21
514 26 1
514 31 7
514 34 1
515 8 1
516 1 6
516 2 32
516 3 41
516 4 1
516 34 64
516 38 1
517 38 1
518 5 1
518 7 1
518 34 1
519 18 18
519 19 23
519 20 4
520 34 1
521 22 1
522 34 1
523 38 1
524 2 19
524 3 37
524 34 71
525 24 19
526 34 1
527 34 1
528 9 1
529 26 1
529 29 2
530 12 13
530 14 5
530 21 1
531 38 3
532 38 1
533 1 1
533 2 7
533 3 15
533 26 2
533 31 3
533 34 17
534 21 6
534 22 2
535 1 2
535 2 26
535 3 50
535 10 1
535 28 1
535 34 68
536 15 1
536 16 1
537 18 1
538 24 1
539 2 3
539 3 4
539 24 1
539 30 1
539 31 2
539 34 2
540 2 1
540 18 43
540 19 46
540 20 21
541 21 1
542 34 1
543 24 1
544 5 1
545 7 1
546 4 1
546 5 2
546 38 1
547 24 1
548 21 1
549 21 30
549 22 19
550 21 1
551 24 2
551 31 1
552 31 5
553 24 1
553 28 1
554 15 1
554 16 1
554 17 1
555 18 1
556 19 1
557 15 1
558 31 6
559 5 1
560 5 1
560 18 1
561 8 1
561 38 1
562 29 1
563 5 1
564 5 1
565 34 1
566 2 12
566 3 10
566 14 1
566 29 8
566 30 1
566 34 10
566 38 2
567 29 1
568 29 7
569 29 1
570 29 1
571 7 16
571 8 41
571 21 7
571 22 3
572 18 4
572 19 3
572 20 1
573 20 1
573 21 1
574 2 1
575 3 1
576 3 1
576 18 14
576 19 18
576 20 3
576 24 1
577 2 1
577 21 1
577 28 3
578 2 1
578 3 3
578 34 3
578 38 1
579 26 6
580 28 5
580 34 1
581 14 1
582 31 1
583 12 23
583 14 16
584 14 1
585 20 1
586 29 1
587 26 5
588 5 1
588 29 6
588 30 1
589 2 1
589 10 1
590 21 1
591 31 3
592 3 2
592 23 1
592 24 14
592 28 1
593 25 1
593 31 4
594 24 1
594 29 12
595 5 1
595 16 1
595 38 1
596 31 1
596 34 1
597 22 1
597 38 3
598 11 1
598 19 1
598 24 17
599 4 1
600 4 7
600 5 22
600 38 27
601 38 1
602 28 3
603 22 1
604 24 1
604 29 12
605 20 1
605 34 1
606 9 1
607 17 1
607 18 2
607 38 1
608 19 1
609 8 1
609 28 5
610 14 1
611 10 1
612 18 5
612 19 6
612 20 2
613 5 1
614 5 1
615 9 1
615 10 3
615 11 2
616 3 1
616 16 1
616 17 6
617 18 13
617 19 17
617 20 3
618 2 1
618 4 3
618 5 28
618 38 22
619 10 1
620 18 1
620 22 1
621 2 12
621 3 11
621 14 2
621 34 14
622 18 1
623 34 1
624 12 1
625 20 1
625 34 1
626 12 1
627 24 1
628 22 1
629 2 5
629 3 10
629 17 1
629 24 2
629 26 10
629 34 6
630 9 5
630 10 5
630 11 5
630 19 1
631 34 1
632 34 1
633 2 8
633 3 13
633 34 20
634 3 1
635 3 1
635 7 1
635 26 1
635 29 1
635 34 1
636 7 1
636 8 1
637 34 1
638 21 1
639 3 1
640 4 8
640 5 22
640 38 33
641 7 1
642 3 1
643 29 1
644 5 1
645 34 1
646 8 3
646 28 2
646 29 1
647 31 1
648 38 1
649 24 1
650 16 1
650 17 1
651 18 2
651 19 5
651 20 1
652 14 1
652 18 1
652 24 1
652 29 9
653 3 1
653 7 1
653 8 8
653 12 1
653 34 1
653 38 1
654 4 1
654 10 1
654 24 1
654 34 2
655 24 1
656 22 1
657 19 1
658 19 1
659 1 1
659 2 21
659 3 26
659 7 1
659 10 1
659 34 33
660 26 3
661 22 19
662 3 1
663 2 1
663 34 1
664 12 1
664 38 1
665 16 1
665 17 1
666 29 1
667 34 1
668 3 1
668 8 1
668 10 1
668 24 1
669 34 1
670 24 1
671 24 4
672 5 1
672 10 1
673 3 1
674 11 1
675 9 6
675 10 9
675 11 7
675 18 6
675 19 11
675 20 3
676 9 14
676 10 14
676 11 12
677 19 1
677 24 7
677 25 1
678 2 2
678 3 3
678 34 3
679 8 1
680 18 1
680 24 1
681 28 1
682 18 1
683 8 3
684 34 1
685 29 1
686 22 2
687 18 1
687 19 1
688 2 1
688 28 1
689 31 2
690 22 2
691 9 1
691 21 1
691 28 7
692 29 8
692 34 1
693 3 1
693 5 1
693 31 5
694 4 2
694 5 13
694 19 1
694 34 1
694 38 16
695 14 1
695 18 1
695 29 1
696 24 2
697 29 1
698 31 8
699 2 1
699 34 1
700 3 1
701 15 1
701 34 1
702 34 1
703 5 1
703 38 3
704 18 1
704 25 1
704 26 5
705 9 5
705 10 10
705 11 6
705 34 1
705 38 1
706 24 7
706 28 1
707 38 1
708 5 1
709 22 1
709 28 1
710 9 1
711 3 1
711 12 1
711 18 1
711 19 1
712 14 1
712 29 1
713 8 1
714 21 1
715 22 1
715 29 8
715 30 2
716 18 1
716 19 1
716 20 1
717 23 2
717 24 8
718 14 1
719 2 1
719 3 1
719 5 1
719 11 1
719 18 1
719 19 2
719 20 1
719 24 2
719 34 2
720 29 1
721 19 1
722 3 1
722 12 49
722 13 2
722 14 37
722 25 1
723 38 1
724 5 1
725 24 3
726 34 1
727 1 1
727 2 4
727 3 10
727 34 7
728 24 1
729 29 1
730 4 1
730 5 1
730 26 1
731 5 1
731 15 1
731 31 4
732 34 1
733 24 1
734 29 5
735 1 3
735 2 7
735 3 15
735 8 1
735 34 17
736 5 1
736 21 1
737 5 12
737 29 21
737 30 3
737 38 24
738 3 1
738 21 2
739 34 1
740 5 1
741 2 28
741 3 46
741 24 1
741 34 59
742 12 4
742 14 2
743 28 1
744 29 6
744 30 1
745 2 7
745 3 10
745 31 4
745 34 11
746 21 1
747 8 1
748 21 24
748 22 18
749 2 1
749 3 1
749 30 1
749 31 1
749 38 1
750 18 1
751 22 1
752 34 1
753 34 1
754 28 1
755 31 7
756 5 1
756 24 1
756 31 4
757 24 3
758 15 6
758 16 3
758 17 3
759 9 14
759 10 20
759 11 14
759 22 1
759 38 1
760 2 1
760 28 10
761 26 1
761 31 1
762 14 1
762 18 1
763 5 1
764 21 1
765 4 1
766 29 18
767 19 1
768 5 1
769 12 1
769 24 1
769 29 3
770 38 1
771 19 1
772 9 1
773 4 1
773 5 1
773 9 19
773 10 24
773 11 14
773 12 12
773 14 15
774 18 1
774 19 3
775 29 7
776 3 1
776 24 7
776 29 1
776 38 1
777 22 1
777 26 1
778 4 17
778 5 61
778 38 75
779 1 2
779 2 7
779 3 11
779 24 4
779 34 14
780 4 2
780 5 10
780 38 16
781 24 1
782 18 1
783 24 1
784 9 1
784 28 1
785 2 1
786 15 2
786 16 3
786 34 1
787 18 1
788 2 1
789 34 1
790 3 1
790 15 1
790 17 4
790 26 4
791 31 1
792 5 1
793 28 4
794 5 1
794 31 1
795 11 1
796 12 1
796 29 1
796 38 2
797 18 1
797 21 1
797 22 1
797 28 4
797 29 1
797 34 2
798 24 11
798 38 1
799 2 1
799 24 8
800 5 1
801 3 1
801 34 2
802 29 1
803 21 1
804 5 8
804 24 13
804 38 9
805 18 15
805 19 8
805 20 7
806 38 1
807 18 38
807 19 42
807 20 9
807 38 1
808 3 1
809 20 1
810 24 5
810 31 1
811 28 2
811 38 1
812 24 33
812 29 1
813 5 1
814 34 1
815 34 1
816 24 1
817 7 2
817 18 2
817 19 3
818 3 1
818 24 3
818 31 1
818 34 1
818 38 1
819 1 1
819 2 22
819 3 43
819 16 1
819 34 62
820 2 1
821 24 3
821 29 2
822 20 1
823 11 1
823 18 1
824 24 6
824 34 1
825 13 1
825 14 5
826 21 1
827 12 5
827 14 5
828 24 3
829 34 2
830 21 1
831 19 1
832 4 5
832 5 4
832 38 8
833 5 1
833 38 4
834 20 1
835 38 1
836 5 1
837 11 1
838 25 1
838 26 12
839 3 1
839 31 1
840 26 2
841 2 6
841 3 8
841 34 6
842 7 1
843 9 1
843 10 1
843 11 1
843 38 1
844 4 3
844 5 5
844 8 1
844 10 1
844 38 8
845 12 1
845 14 5
845 34 1
846 12 1
847 10 1
848 28 4
849 3 1
850 12 4
850 14 1
850 18 1
850 29 1
851 21 11
851 22 2
852 29 29
852 30 3
853 15 1
854 4 8
854 5 29
854 38 16
855 7 5
855 8 14
856 34 1
857 1 1
857 2 4
857 3 20
857 34 17
858 34 1
859 21 1
860 5 1
860 24 1
860 34 1
861 2 4
861 3 7
861 34 6
862 11 1
862 28 1
862 38 1
863 24 1
864 15 1
864 34 1
865 9 1
865 17 1
865 22 1
866 3 1
867 4 3
867 5 12
867 29 1
867 38 29
868 2 1
868 3 12
868 34 16
869 7 6
869 8 6
870 3 1
871 3 1
872 24 1
873 21 1
874 22 1
875 31 25
876 34 1
877 34 1
878 9 1
878 28 1
879 12 1
880 15 1
881 5 4
881 10 4
881 34 1
881 38 3
882 3 1
882 5 2
883 29 3
883 34 1
884 29 2
885 15 1
886 28 4
886 34 1
887 9 1
887 10 4
887 21 1
887 26 1
888 31 2
889 1 1
889 2 23
889 3 20
889 34 37
890 26 1
890 38 6
891 5 1
891 12 1
891 21 3
891 22 4
892 4 1
892 5 1
892 18 6
892 19 14
892 20 5
893 5 1
894 20 1
895 24 3
896 3 1
897 10 1
898 2 1
898 19 1
899 26 1
900 21 1
901 26 1
902 9 1
902 10 1
902 11 4
903 10 5
904 31 2
905 5 3
905 31 1
905 38 5
906 34 1
907 25 1
907 26 16
907 38 1
908 3 1
909 18 1
910 3 1
910 28 1
910 29 7
910 34 5
911 3 1
912 3 1
912 18 1
912 25 1
912 26 1
913 24 1
914 4 1
914 5 7
914 38 2
915 7 8
915 8 24
916 10 1
917 11 1
917 21 4
917 22 1
918 19 2
918 20 1
919 26 5
920 26 3
921 26 1
922 3 1
923 10 2
923 11 1
923 24 1
924 4 1
925 9 1
926 23 1
926 24 15
927 8 1
928 7 8
928 8 7
928 31 12
929 7 1
929 8 2
929 19 1
930 21 1
931 5 1
931 24 1
931 38 3
932 8 1
933 8 2
933 12 8
933 14 8
934 29 5
935 30 1
936 15 9
936 16 12
936 17 9
937 23 2
937 24 17
938 34 1
939 12 30
939 13 1
939 14 14
940 2 1
940 7 2
940 8 9
940 31 3
941 17 1
942 24 1
943 19 1
944 2 1
945 29 1
946 3 1
946 7 9
946 8 16
946 31 1
947 5 2
947 38 1
948 2 1
948 7 2
948 8 5
948 21 1
948 22 1
949 4 1
949 5 7
949 38 6
950 26 2
951 38 1
952 9 2
952 11 1
952 29 1
953 24 25
953 29 1
953 31 1
954 26 1
955 34 1
956 14 1
956 24 1
957 18 1
958 4 4
958 5 11
958 38 20
959 21 1
960 24 1
961 7 1
962 38 1
963 8 1
963 24 1
964 19 1
965 5 1
965 34 2
965 38 1
966 15 10
966 16 9
966 17 6
966 19 1
967 14 1
967 26 14
967 29 1
968 3 1
968 9 7
968 10 4
968 11 6
969 3 1
970 9 11
970 10 29
970 11 19
970 26 1
971 2 1
971 14 1
971 24 2
972 4 7
972 5 26
972 38 24
973 2 1
973 3 1
973 20 1
974 20 2
974 34 1
975 19 2
975 20 1
975 22 1
976 24 1
977 22 1
977 29 4
977 34 1
978 7 2
978 12 1
978 15 7
978 16 3
978 17 3
979 12 1
980 29 1
981 2 3
981 3 3
981 26 1
981 28 4
981 29 14
981 30 1
981 34 5
982 2 2
982 3 1
982 9 1
982 24 2
982 29 1
982 34 1
983 5 1
983 19 1
983 24 1
983 29 1
983 34 1
984 34 1
985 18 2
985 19 1
986 8 1
986 23 1
986 24 12
987 18 1
987 19 6
987 20 1
988 8 1
989 18 5
989 19 14
989 20 4
990 3 1
990 19 1
990 24 1
991 5 1
992 7 1
992 8 1
992 14 1
993 2 1
993 28 1
994 3 1
995 24 1
996 19 1
996 38 1
997 8 1
997 34 2
998 29 1
999 34 1
1000 34 1
1001 2 1
1002 3 1
1003 7 1
1004 38 1
1005 24 1
1006 8 1
1006 18 1
1007 31 1
1008 21 1
1009 3 1
1010 7 8
1010 8 14
1010 29 1
1011 31 1
1012 1 1
1012 2 24
1012 3 25
1012 34 33
1013 20 1
1014 3 1
1015 21 1
1015 34 1
1016 24 1
1017 31 1
1017 32 1
1018 9 1
1019 34 1
1020 9 1
1021 20 1
1022 38 1
1023 1 1
1023 2 1
1023 3 3
1023 26 3
1023 29 5
1023 34 3
1024 9 1
1025 5 1
1026 18 1
1027 31 10
1028 3 1
1029 26 3
1030 18 1
1031 31 15
1031 34 1
1032 38 1
1033 20 1
1033 23 1
1033 24 3
1034 3 1
1035 34 1
1036 31 1
1037 34 1
1038 12 1
1039 3 1
1040 34 1
1041 34 1
1042 4 1
1043 29 1
1044 4 3
1044 5 14
1044 38 23
1045 12 7
1045 14 3
1045 38 1
1046 18 1
1047 31 3
1048 16 2
1048 17 2
1049 23 1
1049 24 5
1050 5 1
1050 9 1
1050 24 1
1051 29 1
1052 3 16
1052 34 12
1053 24 1
1054 9 1
1054 14 1
1054 34 1
1055 2 1
1055 9 7
1055 10 6
1055 11 3
1056 21 1
1057 3 1
1057 4 2
1057 5 20
1057 38 28
1058 34 1
1059 2 2
1059 3 3
1059 4 5
1059 5 21
1059 24 1
1059 34 2
1059 38 17
1060 38 1
1061 31 1
1062 3 1
1063 31 1
1064 34 1
1065 38 1
1066 3 1
1067 13 1
1067 14 1
1068 31 2
1068 38 1
1069 3 1
1069 24 4
1069 26 1
1069 29 3
1070 19 1
1071 22 1
1071 34 1
1072 28 2
1073 29 3
1073 38 1
1074 19 1
1075 11 1
1075 31 2
1076 1 1
1076 2 7
1076 3 11
1076 7 1
1076 21 1
1076 34 23
1077 20 1
1078 10 1
1079 34 1
1080 12 9
1080 14 8
1080 38 1
1081 8 1
1082 29 15
1083 11 1
1084 5 1
1084 7 5
1084 8 6
1084 21 2
1085 5 1
1086 5 1
1087 21 1
1088 21 12
1088 22 13
1089 4 1
1090 29 7
1091 14 1
1092 12 4
1092 14 3
1093 11 1
1093 34 1
1094 15 1
1095 23 1
1095 24 31
1096 24 1
1097 31 1
1098 5 1
1098 21 1
1098 22 1
1099 26 3
1099 31 1
1100 4 1
1101 19 1
1101 31 3
1101 38 1
1102 34 1
1103 5 1
1104 5 1
1105 38 1
1106 19 2
1106 20 1
1107 4 11
1107 5 57
1107 38 50
1108 24 1
1109 9 1
1109 10 5
1109 11 6
1110 18 2
1110 19 2
1110 20 1
1111 31 5
1112 14 1
1113 15 2
1114 12 1
1115 7 1
1115 12 1
1115 34 1
1116 18 65
1116 19 93
1116 20 27
1116 28 1
1117 4 1
1117 5 6
1117 12 1
1117 14 1
1117 31 1
1117 38 2
1118 18 2
1119 7 1
1119 8 1
1120 19 1
1121 21 1
1121 24 27
1122 21 1
1123 28 2
1124 7 2
1124 8 3
1124 24 1
1125 21 1
1125 23 1
1125 24 8
1126 28 5
1127 9 1
1128 9 1
1129 10 1
1130 12 1
1131 2 1
1132 24 1
1132 34 1
1133 15 1
1133 16 1
1134 34 1
1135 3 1
1135 34 1
1136 31 3
1137 17 3
1137 18 1
1138 18 53
1138 19 54
1138 20 21
1139 16 1
1140 2 1
1141 7 11
1141 8 11
1142 29 1
1143 28 2
1144 29 1
1145 21 1
1146 34 1
1147 31 1
1148 8 1
1148 29 1
1149 4 1
1150 21 7
1150 22 2
1151 3 1
1152 29 39
1152 30 1
1153 22 1
1154 18 1
1154 38 1
1155 22 1
1156 9 7
1156 10 45
1156 11 15
1156 29 1
1157 24 2
1158 2 3
1158 3 4
1158 31 1
1158 34 3
1159 19 1
1160 12 1
1160 14 1
1161 20 1
1161 24 1
1162 28 7
1163 34 1
1164 23 1
1164 24 9
1165 29 1
1166 12 7
1166 14 7
1166 24 1
1167 38 1
1168 5 1
1169 2 1
1169 26 1
1170 29 1
1171 29 1
1172 38 2
1173 29 24
1174 3 1
1175 21 15
1175 22 6
1175 24 1
1176 8 1
1177 17 1
1177 21 1
1178 7 7
1178 8 20
1178 14 1
1179 28 2
1180 12 1
1181 12 1
1181 14 2
1181 19 1
1181 34 1
1182 31 18
1183 5 1
1184 9 3
1184 10 10
1184 11 8
1184 12 1
1184 34 1
1185 5 2
1185 12 35
1185 13 2
1185 14 27
1185 38 2
1187 24 1
1188 5 1
1188 24 14
1189 34 1
1190 3 1
1191 8 1
1192 29 19
1193 18 1
1194 15 1
1195 34 1
1196 16 1
1196 29 1
1196 30 1
1197 28 3
1198 38 1
1199 3 1
1200 15 5
1200 16 1
1200 30 1
1200 34 2
1201 7 1
1201 8 1
1201 26 1
1202 5 1
1203 1 2
1203 2 21
1203 3 31
1203 14 1
1203 18 1
1203 34 42
1204 18 1
1204 19 1
1204 20 1
1204 28 1
1205 29 24
1205 30 2
1206 10 1
1206 11 1
1207 10 1
1208 24 6
1209 22 1
1210 7 25
1210 8 28
1210 24 1
1211 18 2
1211 19 3
1211 20 1
1212 12 1
1213 34 1
1214 12 1
1214 18 32
1214 19 43
1214 20 22
1214 21 25
1214 22 14
1215 7 1
1216 3 1
1216 18 2
1216 21 38
1216 22 11
1217 18 1
1218 17 1
1219 19 1
1220 14 1
1221 3 1
1222 31 11
1223 22 1
1224 3 1
1225 12 8
1225 14 4
1226 14 1
1226 18 1
1226 19 1
1226 20 1
1227 11 1
1228 7 1
1228 18 1
1229 31 1
1230 10 1
1230 29 1
1231 10 1
1231 24 1
1232 29 1
1233 14 1
1233 24 1
1234 3 1
1234 31 1
1235 24 1
1235 29 2
1236 38 1
1237 34 1
1238 16 1
1238 29 6
1239 5 1
1239 31 1
1240 16 1
1240 38 2
1241 17 1
1241 29 4
1242 24 1
1243 2 12
1243 3 10
1243 26 1
1243 34 24
1244 3 1
1245 26 2
1246 20 1
1247 2 1
1248 3 1
1249 21 13
1249 22 7
1250 29 1
1251 29 1
1251 30 1
1252 7 5
1252 8 10
1253 3 1
1254 20 1
1255 21 13
1255 22 14
1256 22 1
1257 5 1
1257 12 14
1257 13 2
1257 14 14
1257 28 1
1257 31 1
1257 34 1
1258 29 1
1258 30 1
1259 24 1
1260 21 12
1260 22 4
1261 22 1
1261 26 6
1262 29 1
1263 4 1
1263 28 1
1263 34 1
1264 24 5
1265 38 1
1266 24 30
1267 38 1
1268 28 1
1269 24 1
1270 9 3
1270 10 4
1270 11 1
1270 21 6
1270 22 3
1271 18 1
1272 22 1
1272 26 1
1272 28 1
1272 29 1
1273 21 1
1274 24 10
1275 19 1
1275 30 1
1276 34 1
1277 31 2
1278 34 1
1279 18 1
1280 9 1
1281 14 1
1281 20 1
1281 28 1
1282 2 14
1282 3 15
1282 9 2
1282 18 5
1282 19 1
1282 20 1
1282 34 20
1283 31 1
1284 19 1
1285 2 1
1286 29 12
1286 30 3
1286 34 1
1287 3 1
1287 24 1
1287 34 1
1288 19 1
1289 4 1
1289 14 1
1290 38 1
1291 12 1
1291 29 12
1291 30 1
1291 31 1
1292 34 1
1293 19 1
1294 34 1
1295 5 1
1295 29 1
1295 31 26
1296 3 1
1296 4 4
1296 5 21
1296 8 1
1296 28 1
1296 38 26
1297 14 1
1298 18 12
1298 19 14
1299 2 1
1299 26 3
1299 29 15
1299 30 1
1300 9 1
1301 21 1
1302 12 2
1302 14 6
1302 22 1
1303 20 1
1303 21 18
1303 22 9
1304 19 1
1305 29 1
1306 8 1
1307 22 1
1308 15 1
1309 29 1
1310 24 1
1311 28 3
1311 29 1
1312 18 20
1312 19 23
1312 20 7
1313 31 10
1314 38 1
1315 19 1
1316 25 1
1316 26 2
1317 1 1
1317 2 3
1317 3 3
1317 28 1
1317 29 2
1317 34 6
1318 5 3
1318 38 5
1319 8 1
1319 18 1
1320 21 9
1320 22 6
1321 2 1
1322 24 1
1323 24 21
1323 31 4
1324 28 1
1324 31 6
1325 19 1
1326 34 2
1327 19 1
1328 38 1
1329 12 3
1329 14 1
1330 1 1
1330 2 23
1330 3 69
1330 34 46
1331 3 2
1332 3 1
1333 11 1
1333 24 1
1333 34 1
1334 3 1
1335 18 1
1336 2 2
1337 34 1
1338 3 1
1338 28 1
1339 29 1
1340 4 8
1340 5 26
1340 38 31
1341 25 1
1341 26 6
1342 2 2
1342 3 8
1342 34 8
1343 5 6
1343 21 1
1343 38 4
1344 3 1
1344 29 1
1345 5 1
1346 2 1
1346 29 1
1346 34 1
1347 21 1
1347 24 5
1347 28 1
1348 22 1
1349 2 1
1350 24 1
1351 38 1
1352 2 1
1353 11 1
1354 2 3
1354 3 13
1354 24 11
1354 31 1
1354 34 14
1355 3 1
1356 23 1
1356 24 16
1357 29 6
1357 30 1
1358 2 1
1359 18 9
1359 19 16
1359 20 9
1360 9 1
1360 10 4
1360 19 1
1361 5 1
1361 28 2
1362 26 4
1362 31 1
1363 29 1
1364 1 1
1364 2 4
1364 29 5
1364 34 6
1365 24 1
1366 29 8
1367 2 1
1367 4 3
1367 5 19
1367 38 25
1368 10 1
1368 18 9
1368 19 24
1368 20 1
1368 24 1
1368 34 1
1369 9 1
1369 10 9
1369 11 8
1370 10 2
1371 29 25
1371 30 1
1372 18 1
1372 22 1
1373 34 1
1374 7 1
1374 15 31
1374 16 8
1374 17 11
1375 5 1
1375 34 1
1376 2 1
1376 31 3
1377 11 1
1378 19 1
1378 29 1
1379 19 1
1379 31 1
1380 15 19
1380 16 12
1380 17 4
1381 2 1
1382 38 1
1383 28 1
1384 24 1
1385 15 1
1385 29 5
1386 24 4
1387 38 1
1388 19 1
1389 19 1
1390 38 1
1391 3 1
1392 2 1
1393 5 5
1393 7 3
1393 38 5
1394 38 2
1395 4 10
1395 5 49
1395 38 58
1396 11 1
1396 26 1
1396 38 1
1397 3 1
1397 4 1
1398 4 2
1398 5 11
1398 26 1
1398 28 1
1398 38 3
1399 3 2
1400 7 1
1400 15 1
1400 29 6
1400 30 1
1401 1 1
1401 2 5
1401 3 17
1401 34 19
1402 18 4
1402 19 2
1402 21 17
1402 22 14
1403 19 1
1404 28 2
1405 2 1
1406 4 6
1406 5 43
1406 22 1
1406 24 29
1406 38 51
1407 8 1
1408 7 1
1409 21 6
1409 22 6
1410 5 1
1410 14 3
1410 34 1
1410 38 1
1411 29 1
1412 28 1
1413 3 1
1414 8 1
1414 31 1
1415 38 1
1416 21 1
1417 3 1
1418 31 1
1419 3 10
1419 34 8
1420 29 28
1421 10 1
1422 24 5
1423 14 1
1424 31 1
1424 38 1
1425 31 1
1426 15 1
1426 18 1
1426 24 1
1427 5 1
1427 21 29
1427 22 23
1429 28 1
1429 34 1
1430 28 1
1431 29 28
1431 30 1
1431 38 2
1432 29 1
1433 2 1
1433 21 59
1433 22 41
1434 21 1
1435 21 1
1436 3 1
1436 5 1
1437 3 1
1438 29 1
1438 34 1
1439 38 1
1440 5 2
1440 12 1
1441 3 1
1442 31 2
1443 24 1
1444 29 1
1445 19 1
1446 10 1
1446 34 1
1447 38 1
1448 2 1
1449 4 2
1449 5 1
1449 38 2
1450 29 1
1451 5 4
1451 12 2
1451 38 10
1452 3 1
1453 3 1
1453 26 1
1454 29 16
1454 30 1
1455 16 1
1456 2 8
1456 3 6
1456 34 12
1457 4 1
1457 5 12
1457 38 16
1458 2 2
1458 3 4
1458 34 9
1459 29 1
1460 4 1
1461 7 1
1462 34 1
1463 24 1
1464 2 1
1465 10 1
1466 10 1
1467 34 1
1468 3 1
1469 29 1
1470 24 1
1471 4 13
1471 5 29
1471 28 1
1471 38 52
1472 18 1
1473 19 1
1473 29 24
1474 24 1
1475 38 1
1476 29 17
1476 30 2
1477 3 1
1477 34 1
1478 22 1
1479 24 1
1480 31 1
1481 29 4
1482 34 1
1483 2 1
1484 2 1
1484 18 1
1485 12 1
1486 34 1
1487 12 1
1487 34 1
1488 4 1
1488 10 1
1489 3 1
1490 26 5
1491 29 8
1491 30 2
1492 21 18
1492 22 5
1493 2 1
1493 18 1
1494 21 1
1494 25 1
1494 26 5
1495 7 1
1496 7 1
1497 15 1
1497 21 3
1497 22 4
1497 34 2
1498 19 1
1499 4 1
1499 5 2
1499 12 12
1499 13 1
1499 14 6
1499 38 5
1500 28 1
1501 38 2
1502 5 1
1503 18 1
1503 22 1
1503 24 42
1504 29 1
1505 24 17
1506 18 9
1506 19 10
1506 20 4
1507 2 2
1507 3 12
1507 21 2
1507 34 13
1508 34 1
1509 24 7
1510 34 1
1511 31 1
1512 2 1
1513 18 1
1514 34 1
1515 2 7
1515 3 11
1515 8 1
1515 24 2
1515 34 10
1516 3 1
1517 5 1
1518 29 15
1518 30 2
1519 2 35
1519 3 62
1519 21 1
1519 34 78
1520 31 3
1521 4 8
1521 5 15
1521 38 26
1522 21 1
1523 8 3
1523 18 38
1523 19 33
1523 20 13
1523 31 7
1524 29 5
1525 29 1
1526 18 1
1527 24 5
1528 24 4
1529 2 2
1529 3 15
1529 34 12
1530 5 1
1531 2 1
1531 19 1
1531 23 1
1531 24 20
1532 19 1
1533 28 2
1534 4 1
1534 5 3
1534 18 1
1534 38 8
1535 7 1
1535 11 1
1536 24 13
1537 29 19
1537 30 1
1538 3 1
1538 18 2
1539 30 1
1540 20 1
1541 7 1
1541 21 1
1542 2 12
1542 3 20
1542 34 22
1543 24 1
1543 34 1
1544 24 1
1545 3 1
1546 15 1
1547 34 1
1548 5 1
1548 29 26
1548 30 1
1549 28 1
1550 8 1
1551 24 14
1551 38 1
1552 38 1
1553 1 1
1553 2 22
1553 3 60
1553 34 77
1554 29 1
1555 4 1
1556 2 6
1556 3 24
1556 24 1
1556 34 16
1557 3 1
1558 24 11
1559 14 1
1560 11 1
1561 29 17
1562 12 20
1562 14 6
1563 29 3
1563 38 1
1564 2 5
1564 3 7
1564 11 1
1564 34 5
1565 2 3
1565 3 8
1565 10 1
1565 34 8
1566 19 1
1566 21 22
1566 22 7
1567 31 4
1568 2 1
1568 28 1
1568 29 2
1569 16 1
1570 19 1
1571 3 1
1571 10 1
1571 24 3
1572 34 1
1573 9 1
1573 12 1
1573 19 33
1573 20 9
1573 21 1
1573 22 1
1574 5 1
1574 28 1
1575 21 9
1575 22 8
1576 2 1
1576 3 13
1576 34 5
1577 18 1
1578 21 1
1578 24 15
1579 4 14
1579 5 85
1579 29 4
1579 30 2
1579 38 67
1580 26 1
1581 21 1
1582 19 1
1582 31 2
1582 34 1
1583 24 1
1584 38 1
1585 2 6
1585 3 1
1585 5 1
1585 29 1
1585 34 2
1586 21 30
1586 22 13
1587 38 1
1588 2 1
1588 3 2
1588 34 2
1589 26 3
1590 29 5
1591 5 1
1591 19 1
1592 2 4
1592 3 15
1592 34 17
1593 23 1
1593 24 9
1594 34 1
1595 14 1
1595 26 17
1595 34 1
1596 10 1
1596 34 1
1597 31 9
1598 2 5
1598 3 7
1598 34 8
1599 26 1
1600 31 1
1601 18 2
1601 19 2
1602 28 3
1603 2 1
1604 2 1
1604 3 2
1604 12 1
1604 34 1
1605 5 1
1605 29 2
1606 3 1
1606 18 2
1606 19 1
1606 29 1
1607 2 1
1608 2 1
1608 3 7
1608 34 2
1609 7 1
1609 8 9
1609 9 1
1610 3 1
1611 4 5
1611 5 50
1611 38 49
1612 12 2
1612 14 2
1612 20 1
1612 31 1
1613 34 1
1614 1 1
1614 2 32
1614 3 37
1614 4 1
1614 12 1
1614 34 56
1615 12 1
1616 24 10
1617 34 1
1618 7 1
1619 10 1
1619 24 24
1620 38 1
1621 3 1
1622 26 1
1623 5 2
1624 21 1
1625 31 9
1626 2 1
1627 3 2
1627 29 2
1627 34 2
1628 2 1
1628 3 4
1628 29 7
1628 30 2
1628 34 5
1629 5 1
1629 31 5
1630 34 1
1631 19 2
1632 2 1
1632 29 2
1632 30 1
1632 34 1
1633 31 2
1634 31 4
1635 10 1
1636 15 1
1637 5 1
1638 28 1
1639 10 1
1640 19 1
1640 24 2
1641 11 1
1642 12 1
1643 3 1
1643 29 7
1644 18 9
1644 19 19
1644 20 9
1645 5 1
1645 17 1
1645 24 4
1645 31 2
1645 34 1
1646 29 2
1647 20 1
1647 21 15
1647 22 12
1647 26 1
1648 12 1
1649 24 11
1650 10 1
1650 25 2
1650 26 13
1651 29 1
1652 21 1
1653 24 10
1654 24 1
1654 38 1
1655 9 3
1655 10 3
1655 11 5
1655 21 19
1655 22 7
1656 16 1
1656 17 1
1657 26 1
1658 5 1
1659 4 1
1660 7 1
1661 2 1
1661 24 1
1661 29 8
1661 30 1
1662 15 21
1662 16 6
1662 17 4
1663 14 2
1663 19 2
1663 20 2
1663 34 1
1664 9 5
1664 10 8
1664 11 2
1665 18 1
1666 11 1
1666 24 8
1667 24 6
1667 38 1
1668 5 1
1668 9 1
1669 11 1
1670 34 1
1671 3 1
1671 18 6
1671 19 3
1671 20 1
1672 2 18
1672 3 43
1672 28 1
1672 34 63
1673 15 1
1674 2 1
1675 28 2
1676 24 1
1677 4 1
1678 2 1
1678 34 1
1679 9 6
1679 10 20
1679 11 11
1680 20 1
1681 11 1
1682 4 3
1682 5 2
1682 38 4
1683 4 1
1683 5 3
1683 38 4
1684 3 1
1685 38 1
1686 2 5
1686 3 6
1686 7 1
1686 29 1
1686 34 6
1687 29 1
1688 7 5
1688 8 3
1688 18 1
1689 11 1
1690 18 1
1690 31 11
1691 29 8
1691 30 1
1692 28 4
1693 9 6
1693 10 27
1693 11 13
1693 21 1
1693 22 1
1693 34 1
1694 22 1
1695 4 1
1695 5 20
1695 38 15
1696 10 1
1697 34 1
1698 19 1
1699 17 1
1699 24 5
1699 28 3
1699 29 1
1700 2 1
1700 24 1
1701 3 1
1701 21 46
1701 22 19
1702 12 1
1702 19 1
1703 5 4
1703 38 7
1704 22 1
1705 7 4
1705 8 14
1705 12 1
1705 22 1
1706 15 12
1706 16 11
1706 17 7
1707 21 1
1708 5 1
1708 20 1
1709 7 13
1709 8 20
1709 9 15
1709 10 20
1709 11 4
1710 4 1
1710 28 3
1711 10 1
1712 11 1
1712 24 3
1713 2 1
1714 2 1
1715 4 2
1715 5 1
1715 10 1
1715 24 2
1715 38 2
1716 29 2
1717 10 1
1718 2 6
1718 3 15
1718 34 30
1719 7 1
1720 9 1
1720 10 9
1720 11 5
1721 3 1
1722 10 1
1723 31 10
1724 2 1
1724 7 32
1724 8 43
1725 24 1
1725 31 13
1725 33 1
1725 38 1
1726 2 1
1727 3 1
1728 38 1
1729 2 1
1730 24 1
1730 34 1
1731 9 1
1732 20 1
1733 11 1
1734 38 1
1735 18 1
1735 20 1
1736 24 1
1737 3 1
1738 24 1
1739 3 1
1740 12 1
1741 5 1
1742 4 1
1743 3 1
1744 2 4
1744 3 11
1744 34 16
1745 27 1
1745 28 2
1746 21 8
1746 22 2
1747 18 1
1747 31 6
1747 32 1
1748 14 1
1749 34 1
1750 5 1
1751 4 4
1751 5 9
1751 29 1
1751 31 1
1751 38 13
1752 24 1
1752 31 1
1753 3 1
1754 9 1
1754 29 7
1754 30 1
1754 31 1
1755 5 1
1756 34 1
1757 1 1
1757 2 17
1757 3 37
1757 34 42
1758 2 1
1759 34 1
1760 24 9
1761 38 1
1762 34 1
1763 21 1
1764 34 1
1765 2 10
1765 3 10
1765 34 8
1766 34 1
1767 34 1
1768 29 3
1768 30 1
1768 38 1
1769 10 1
1770 31 1
1771 3 1
1772 29 5
1772 30 1
1773 26 1
1774 2 1
1774 8 1
1774 31 7
1775 5 1
1776 29 1
1777 17 1
1778 5 1
1779 2 4
1779 3 4
1779 19 1
1779 34 6
1780 18 2
1780 19 1
1780 20 1
1781 24 4
1782 2 2
1782 5 1
1782 38 1
1783 21 1
1784 29 1
1785 2 1
1786 11 1
1786 15 2
1786 17 2
1787 24 1
1788 4 5
1788 5 15
1788 26 2
1788 38 26
1789 24 1
1790 2 15
1790 3 28
1790 20 1
1790 26 1
1790 34 46
1791 3 1
1792 24 3
1792 34 2
1793 2 1
1794 18 1
1795 3 1
1795 4 2
1795 5 1
1795 38 2
1796 5 1
1796 11 1
1797 2 2
1797 3 1
1797 31 5
1797 34 4
1798 29 2
1799 31 9
1800 9 2
1800 11 1
1800 24 1
1801 29 1
1802 10 2
1803 19 1
1804 38 1
1805 29 8
1805 30 1
1806 3 1
1806 31 9
1807 24 1
1808 34 1
1809 5 1
1810 3 1
1810 31 13
1811 5 3
1811 21 1
1811 38 8
1812 34 1
1813 24 1
1814 34 1
1815 21 19
1815 22 20
1816 24 1
1817 1 1
1817 2 16
1817 3 17
1817 31 12
1817 34 17
1818 21 16
1818 22 10
1819 19 1
1820 3 1
1820 4 2
1820 5 5
1820 38 6
1821 21 1
1822 26 1
1822 31 12
1823 2 6
1823 3 14
1823 28 1
1823 34 12
1824 8 1
1825 21 29
1825 22 14
1825 34 1
1826 18 23
1826 19 39
1826 20 6
1827 24 2
1827 38 1
1828 15 2
1828 17 2
1829 20 1
1829 24 1
1829 38 1
1830 4 1
1830 5 5
1830 10 1
1830 16 1
1830 38 5
1831 4 1
1832 5 1
1833 31 1
1834 12 1
1835 24 1
1836 19 1
1836 29 3
1836 30 2
1837 12 1
1837 21 2
1837 22 2
1838 24 6
1838 26 1
1838 28 1
1839 22 1
1840 3 1
1840 12 32
1840 14 11
1840 34 1
1841 18 1
1842 34 1
1843 3 1
1843 18 10
1843 19 26
1843 20 3
1844 3 3
1844 34 4
1845 12 1
1846 18 1
1846 23 1
1846 24 27
1846 29 1
1847 29 1
1848 3 7
1848 26 2
1848 34 12
1849 3 1
1850 34 1
1851 1 2
1851 2 21
1851 3 37
1851 34 25
1852 28 2
1853 38 1
1854 15 1
1855 22 1
1855 29 1
1856 4 2
1856 5 11
1856 38 17
1857 24 1
1858 23 1
1858 24 23
1859 38 1
1860 24 13
1861 18 1
1862 17 1
1863 5 6
1863 25 1
1863 26 13
1863 38 9
1864 17 1
1865 15 22
1865 16 6
1865 17 12
1865 29 1
1866 9 2
1866 11 2
1867 4 4
1867 5 16
1867 38 15
1868 10 1
1868 18 6
1868 19 8
1868 20 5
1869 34 1
1870 34 1
1871 4 5
1871 5 9
1871 38 15
1872 24 1
1873 3 2
1874 38 1
1875 25 2
1876 10 1
1876 19 1
1876 26 3
1877 2 1
1877 10 1
1878 12 4
1878 14 2
1879 5 1
1879 31 4
1880 19 1
1881 2 1
1881 3 2
1881 4 2
1881 5 7
1881 34 6
1881 38 10
1882 24 13
1883 2 6
1883 3 7
1883 34 14
1884 29 1
1885 2 1
1885 3 1
1885 38 1
1886 21 2
1886 38 1
1887 26 1
1888 29 11
1889 31 3
1890 2 23
1890 3 47
1890 34 41
1891 20 1
1892 24 15
1893 24 1
1894 34 1
1895 34 1
1896 38 1
1897 19 1
1897 29 2
1897 30 1
1898 38 1
1899 7 1
1900 34 1
1901 17 1
1901 31 1
1902 2 1
1902 3 2
1902 22 1
1902 29 1
1903 31 1
1904 2 1
1904 34 1
1905 2 8
1905 3 6
1905 34 21
1906 20 1
1907 5 1
1907 28 3
1907 29 7
1908 12 14
1908 13 3
1908 14 9
1909 23 1
1909 24 16
1910 3 1
1910 15 2
1911 38 1
1912 12 1
1912 38 1
1913 9 6
1913 10 8
1913 11 4
1914 15 1
1914 25 1
1914 26 1
1914 34 1
1915 11 1
1915 28 1
1916 24 34
1917 29 1
1918 21 1
1919 2 1
1919 3 5
1919 29 2
1920 15 2
1920 16 1
1920 17 1
1920 21 6
1920 22 2
1921 10 1
1922 4 1
1922 5 7
1922 38 6
1923 34 1
1924 34 1
1925 18 1
1925 38 1
1926 31 1
1927 3 1
1928 12 2
1928 18 1
1929 3 1
1929 9 2
1930 2 1
1931 5 1
1931 17 1
1931 24 9
1932 5 8
1932 24 1
1932 29 2
1932 38 11
1933 29 5
1934 29 5
1935 3 1
1936 19 1
1936 26 3
1937 29 2
1937 34 1
1937 38 1
1938 24 1
1939 26 4
1940 29 8
1940 30 2
1941 12 1
1941 21 34
1941 22 29
1941 31 1
1942 24 1
1943 34 1
1944 14 1
1945 3 2
1945 28 1
1945 34 1
1946 26 1
1947 2 1
1948 29 13
1949 16 1
1950 24 1
1951 2 1
1951 29 2
1951 30 2
1952 12 1
1952 29 1
1953 11 1
1954 1 1
1954 2 7
1954 3 16
1954 34 15
1954 38 1
1955 8 1
1956 34 1
1957 26 1
1957 29 1
1957 38 1
1958 28 1
1958 29 12
1958 30 2
1958 34 1
1959 29 9
1960 22 1
1961 2 1
1962 29 1
1963 38 1
1964 29 1
1965 5 1
1966 12 1
1967 12 1
1968 21 1
1969 3 1
1969 7 3
1969 8 3
1970 23 1
1970 24 5
1971 24 8
1972 3 1
1973 12 8
1973 14 11
1974 3 1
1974 38 1
1975 17 1
1975 19 1
1976 1 1
1976 2 14
1976 3 32
1976 34 46
1977 21 1
1978 16 1
1979 14 1
1980 15 42
1980 16 29
1980 17 21
1980 28 1
1981 17 1
1982 17 1
1982 34 1
1982 38 1
1983 15 5
1983 16 3
1983 17 3
1983 21 31
1983 22 26
1984 19 1
1985 22 1
1986 7 1
1986 8 1
1986 16 1
1986 34 2
1987 22 2
1988 19 1
1989 19 1
1990 29 1
1991 10 1
1992 3 1
1992 23 1
1992 24 22
1993 24 18
1993 28 5
1993 38 1
1994 5 1
1995 22 1
1996 15 1
1997 26 2
1998 29 2
1999 38 1
2000 5 1
2000 20 1
2000 24 1
2001 29 1
2002 34 1
2003 24 1
2004 19 1
2004 21 14
2004 22 5
2005 12 1
2005 18 46
2005 19 56
2005 20 18
2005 24 1
2005 34 1
2006 20 1
2006 21 1
2006 28 1
2006 29 1
2006 31 1
2007 31 1
2008 34 1
2009 2 4
2009 3 11
2009 5 1
2009 34 16
2010 34 1
2011 38 1
2012 7 1
2012 8 1
2013 11 2
2013 24 1
2013 38 1
2014 19 1
2015 19 1
2016 3 1
2017 21 12
2017 22 9
2018 12 1
2018 29 1
2019 19 1
2020 2 3
2020 3 7
2020 34 7
2021 38 1
2022 18 1
2022 21 1
2022 31 4
2023 34 1
2024 21 1
2025 24 1
2026 2 1
2027 8 1
2028 7 1
2029 21 7
2029 22 5
2030 5 1
2030 14 1
2030 16 2
2030 17 2
2030 34 1
2031 38 1
2032 5 1
2032 18 1
2032 21 23
2032 22 21
2033 24 1
2034 2 2
2034 8 2
2035 18 45
2035 19 52
2035 20 15
2035 26 1
2036 31 1
2037 4 1
2037 19 1
2038 19 1
2039 8 1
2040 20 1
2041 31 1
2042 31 1
2043 29 9
2044 34 1
2045 29 1
2046 2 1
2046 24 8
2046 31 1
2047 19 1
2047 31 14
2048 24 36
2048 34 1
2049 21 1
2050 21 1
2051 21 1
2052 5 1
2052 20 1
2053 2 1
2053 38 1
2054 29 2
2054 30 1
2055 12 1
2055 38 1
2056 34 1
2057 26 1
2058 26 2
2059 29 2
2060 5 2
2060 38 1
2061 24 31
2062 21 1
2062 24 1
2063 2 1
2064 19 1
2065 5 1
2065 21 1
2065 22 3
2066 5 1
2067 7 2
2067 8 4
2067 29 9
2067 30 2
2068 2 7
2068 3 15
2068 9 1
2068 11 1
2068 12 1
2068 34 15
2069 18 1
2070 4 5
2070 5 34
2070 29 1
2070 38 36
2071 9 6
2071 10 6
2071 11 8
2072 29 1
2072 30 1
2073 24 1
2074 3 1
2074 4 7
2074 5 34
2074 17 1
2074 24 1
2074 38 44
2075 4 1
2075 5 6
2075 38 7
2076 4 1
2077 5 1
2078 5 1
2079 19 1
2080 24 21
2080 31 1
2081 3 1
2081 18 1
2081 28 1
2082 2 1
2083 29 19
2083 30 2
2084 2 3
2084 3 3
2084 34 1
2085 17 1
2085 18 1
2086 22 1
2087 18 1
2088 38 1
2089 29 1
2090 18 7
2090 19 2
2090 20 1
2091 2 1
2091 29 1
2092 5 1
2093 31 1
2094 2 18
2094 3 26
2094 34 31
2095 12 18
2095 13 1
2095 14 16
2096 2 1
2096 3 6
2096 34 5
2097 19 1
2097 38 1
2098 5 5
2098 12 1
2098 14 2
2098 34 1
2098 38 9
2099 31 11
2100 5 1
2101 9 1
2102 15 8
2103 14 1
2104 2 2
2104 3 5
2104 34 9
2105 15 1
2105 17 2
2106 2 1
2106 11 1
2106 12 1
2107 24 10
2108 34 1
2109 12 1
2110 24 1
2111 3 1
2111 34 2
2112 24 2
2113 26 1
2114 12 1
2114 16 1
2114 26 1
2115 21 1
2116 4 3
2116 5 11
2116 29 1
2116 38 5
2117 12 15
2117 14 7
2118 7 25
2118 8 42
2119 20 1
2120 3 1
2121 34 1
2122 31 5
2123 5 11
2123 38 18
2124 9 1
2124 18 1
2125 1 1
2125 2 2
2125 3 1
2125 34 3
2126 31 5
2127 34 1
2128 19 1
2129 5 1
2130 21 1
2130 22 1
2130 28 1
2131 25 1
2131 26 4
2132 15 1
2133 31 6
2134 3 1
2134 12 1
2135 31 1
2136 22 1
2136 29 7
2136 30 1
2137 2 2
2137 3 3
2137 10 1
2137 34 2
2138 24 2
2139 18 1
2140 4 1
2141 14 1
2142 28 3
2143 12 4
2143 21 18
2143 22 10
2144 2 2
2144 3 2
2144 34 7
2145 24 22
2145 26 1
2145 34 1
2146 9 35
2146 10 53
2146 11 38
2147 7 1
2147 8 4
2148 10 5
2149 2 1
2150 2 1
2151 38 1
2152 3 1
2153 12 5
2153 13 1
2153 14 3
2154 22 1
2155 14 1
2156 3 1
2156 26 1
2156 34 1
2156 38 1
2157 8 1
2157 11 1
2158 38 1
2159 3 1
2159 29 1
2160 3 2
2161 2 1
2162 3 1
2162 18 2
2162 19 2
2162 20 1
2163 22 1
2164 5 2
2164 18 18
2164 19 17
2164 20 6
2164 31 1
2165 20 1
2166 7 5
2166 8 19
2167 3 1
2168 5 1
2169 29 1
2169 34 1
2170 19 1
2171 29 3
2172 3 1
2173 2 1
2174 26 1
2175 9 1
2175 10 3
2175 24 1
2175 34 1
2176 24 6
2177 2 1
2178 24 3
2178 28 1
2179 3 1
2180 14 9
2180 18 7
2180 19 4
2180 20 4
2181 2 22
2181 3 41
2181 34 50
2182 21 1
2182 22 1
2183 1 2
2183 2 26
2183 3 34
2183 21 1
2183 34 45
2184 34 1
2185 2 21
2185 3 32
2185 24 2
2185 31 3
2185 34 31
2186 2 2
2186 3 21
2186 8 6
2186 18 5
2186 19 8
2186 20 2
2186 34 29
2187 31 1
2188 5 1
2189 20 1
2190 11 1
2191 29 1
2192 22 1
2192 38 1
2193 1 1
2193 2 18
2193 3 21
2193 34 19
2194 11 1
2195 2 9
2195 3 14
2195 12 1
2195 14 6
2195 21 10
2195 24 1
2195 31 1
2195 34 31
2196 19 1
2197 34 1
2198 24 1
2199 5 1
2199 12 1
2200 16 1
2201 29 1
2202 38 1
2203 2 1
2204 34 1
2205 19 1
2206 12 4
2206 14 2
2206 20 1
2207 18 2
2207 19 1
2207 20 2
2208 12 1
2209 19 1
2210 3 6
2210 24 1
2210 34 10
2211 7 10
2211 8 16
2212 2 12
2212 3 9
2212 24 8
2212 28 1
2212 34 22
2213 3 1
2214 29 1
2215 34 1
2216 4 1
2216 5 1
2216 38 1
2217 4 2
2217 5 11
2217 38 9
2218 12 1
2218 31 3
2219 19 1
2220 22 1
2221 15 1
2221 18 1
2221 19 5
2221 20 2
2222 24 1
2223 29 1
2223 38 1
2224 4 1
2224 5 17
2224 38 8
2225 38 1
2226 18 43
2226 19 51
2226 20 18
2227 34 1
2228 9 2
2229 8 1
2229 38 1
2230 8 1
2231 24 1
2232 5 1
2232 18 1
2232 20 1
2233 3 1
2233 4 1
2233 5 1
2233 20 1
2233 24 6
2234 12 1
2235 4 1
2236 5 1
2237 9 1
2238 19 1
2239 21 21
2239 22 12
2240 34 1
2241 2 1
2242 25 1
2242 26 2
2243 9 6
2243 10 1
2243 11 4
2243 15 7
2243 16 12
2243 17 10
2244 31 1
2245 34 1
2246 24 5
2247 20 1
2248 2 40
2248 3 48
2248 18 1
2248 34 77
2249 30 1
2250 5 1
2251 12 1
2251 15 4
2251 16 1
2251 17 1
2251 24 7
2251 38 2
2252 29 2
2253 38 1
2254 34 1
2255 29 2
2256 5 4
2256 38 10
2257 19 1
2258 12 1
2258 18 1
2259 5 1
2259 21 1
2259 22 1
2260 8 1
2261 5 1
2261 24 11
2262 3 1
2262 24 6
2262 28 1
2262 30 1
2262 34 1
2263 5 1
2263 18 1
2263 19 2
2264 25 1
2265 19 9
2266 22 1
2267 18 8
2267 19 8
2267 20 2
2268 17 1
2268 24 3
2268 28 2
2269 2 1
2270 29 2
2271 7 1
2272 21 1
2272 22 2
2273 9 1
2273 11 3
2273 21 1
2273 22 3
2274 34 1
2275 29 9
2275 30 1
2276 31 1
2277 28 2
2277 29 1
2278 15 1
2278 31 9
2279 34 1
2280 3 1
2281 3 1
2282 15 1
2282 31 1
2283 3 1
2284 24 1
2285 1 2
2285 2 23
2285 3 36
2285 34 46
2286 34 1
2287 20 1
2288 8 1
2289 12 2
2290 7 14
2290 8 25
2290 10 1
2291 34 1
2292 2 9
2292 3 9
2292 31 1
2292 34 9
2293 11 1
2293 15 1
2293 16 4
2293 17 1
2294 10 2
2294 15 1
2295 1 1
2295 2 10
2295 3 39
2295 12 1
2295 34 66
2296 34 1
2297 18 1
2297 19 1
2297 20 1
2298 9 2
2298 10 1
2298 11 4
2299 31 4
2300 38 1
2301 9 1
2301 31 21
2302 31 1
2303 19 1
2303 31 4
2304 20 1
2304 26 1
2305 11 1
2305 22 1
2305 28 1
2306 29 25
2306 30 1
2307 29 15
2307 30 2
2308 11 2
2308 31 1
2309 24 1
2310 34 1
2311 22 1
2311 24 1
2312 25 1
2312 26 2
2312 29 1
2313 12 2
2313 14 1
2313 26 1
2314 34 2
2315 3 1
2316 7 2
2316 8 2
2317 5 1
2317 12 1
2318 26 1
2319 2 1
2319 28 11
2320 29 1
2321 38 1
2322 26 4
2323 26 1
2324 38 1
2325 19 1
2326 2 1
2326 8 1
2326 34 2
2327 31 1
2328 11 1
2329 18 1
2330 5 1
2330 15 1
2330 34 1
2330 38 1
2331 29 2
2332 10 1
2333 24 1
2333 34 1
2334 3 1
2335 18 5
2335 19 7
2335 20 2
2336 34 1
2337 18 2
2337 19 1
2337 20 1
2337 34 1
2338 18 15
2338 19 23
2338 20 9
2339 34 1
2340 21 1
2341 5 1
2342 5 1
2342 19 1
2343 26 8
2344 21 1
2345 1 1
2345 18 1
2346 24 3
2347 2 1
2348 24 1
2349 2 3
2349 3 11
2349 26 1
2349 34 21
2349 38 2
2350 38 1
2351 5 1
2351 31 23
2353 2 28
2353 3 20
2353 34 43
2354 5 1
2354 31 4
2355 3 1
2356 29 1
2357 8 1
2358 2 1
2358 4 11
2358 5 67
2358 38 84
2359 24 1
2360 3 1
2361 5 1
2361 25 1
2361 26 2
2362 2 4
2362 3 9
2362 34 9
2363 14 1
2364 24 1
2365 38 1
2366 3 1
2366 15 1
2366 29 1
2367 31 1
2368 2 2
2368 34 1
2369 5 1
2369 12 1
2369 18 1
2369 34 1
2370 15 4
2370 16 1
2370 17 1
2371 12 1
2371 34 1
2371 38 1
2372 21 6
2372 22 8
2373 12 3
2373 14 1
2373 31 1
2374 7 4
2374 8 12
2375 7 1
2376 9 1
2376 29 1
2377 2 1
2377 21 1
2378 24 1
2378 34 1
2379 24 1
2380 26 2
2380 38 1
2381 24 11
2381 34 1
2382 4 1
2382 5 9
2382 38 15
2383 18 1
2383 38 1
2384 3 1
2384 24 3
2385 19 1
2386 4 5
2386 5 25
2386 38 25
2387 28 1
2388 8 1
2389 38 1
2390 4 2
2390 5 16
2390 21 1
2390 38 10
2391 19 1
2392 5 1
2392 34 1
2393 22 1
2394 9 1
2395 18 7
2395 19 5
2395 20 6
2396 28 1
2397 5 1
2397 12 3
2397 14 1
2398 31 1
2399 19 1
2400 8 1
2401 2 1
2401 18 1
2402 3 1
2403 31 1
2404 5 3
2404 38 2
2405 31 1
2406 34 2
2407 2 1
2408 34 1
2409 22 1
2409 29 2
2410 26 2
2411 3 1
2412 12 1
2413 25 3
2413 26 2
2414 38 1
2415 9 5
2415 10 2
2415 11 5
2416 8 2
2417 31 4
2418 21 1
2418 24 6
2418 34 1
2419 31 1
2420 4 1
2420 21 40
2420 22 21
2421 4 10
2421 5 43
2421 38 50
2422 38 1
2423 12 11
2423 14 8
2424 5 1
2425 8 1
2426 18 4
2426 19 6
2426 20 3
2426 34 1
2427 22 1
2428 21 1
2429 5 1
2429 22 1
2430 20 1
2431 2 1
2432 19 25
2432 20 8
2433 5 1
2433 21 11
2433 22 9
2433 34 1
2433 38 1
2434 10 1
2435 3 1
2435 19 1
2435 31 5
2436 21 1
2437 3 2
2438 34 1
2439 19 1
2440 29 1
2441 12 1
2442 34 1
2443 4 1
2443 5 19
2443 38 20
2444 24 4
2445 12 1
2445 14 3
2446 9 1
2446 24 1
2447 2 1
2447 3 8
2447 34 5
2448 28 1
2449 12 1
2449 14 1
2450 15 1
2450 34 1
2451 16 1
2452 24 1
2453 34 1
2454 2 1
2454 3 8
2454 34 12
2455 31 1
2456 10 1
2457 24 1
2458 18 12
2458 19 8
2458 20 4
2459 28 4
2460 18 1
2461 3 1
2461 12 1
2461 19 1
2462 28 6
2463 2 1
2464 2 1
2465 3 1
2465 28 2
2466 38 2
2467 29 1
2468 18 14
2468 19 19
2468 20 14
2469 7 1
2470 3 2
2470 7 1
2470 8 2
2470 11 2
2470 31 1
2470 34 1
2471 5 1
2472 29 1
2473 26 1
2474 4 1
2474 17 1
2474 38 1
2475 21 1
2475 22 1
2475 24 27
2475 25 1
2475 26 11
2475 29 40
2475 30 5
2476 24 15
2477 29 1
2478 38 1
2479 5 1
2479 7 11
2479 8 12
2480 15 1
2480 16 1
2480 29 1
2481 19 1
2482 19 1
2483 24 4
2484 21 1
2485 1 1
2485 2 3
2485 3 2
2485 10 1
2485 18 1
2485 34 3
2486 7 4
2486 8 5
2487 38 1
2488 24 1
2489 34 1
2490 2 14
2490 3 15
2490 34 46
2491 29 1
2491 30 1
2492 17 2
2492 22 1
2492 29 7
2492 34 1
2493 31 1
2494 22 1
2495 31 9
2496 24 1
2497 5 1
2497 21 1
2498 3 1
2498 26 1
2498 31 20
2499 12 1
2499 27 1
2499 28 10
2499 29 25
2499 30 5
2500 24 1
2500 34 1
2501 29 6
2502 18 40
2502 19 44
2502 20 22
2502 24 1
2503 4 1
2503 5 6
2503 21 1
2503 22 3
2503 38 7
2504 21 1
2505 19 1
2506 19 1
2506 34 1
2507 34 1
2508 3 1
2508 31 1
2509 2 1
2510 30 1
2511 4 5
2511 5 20
2511 38 22
2512 2 1
2513 9 1
2514 21 1
2515 5 8
2515 38 7
2516 7 2
2516 8 2
2516 9 4
2516 10 3
2517 38 1
2518 2 1
2519 19 1
2520 29 3
2521 3 1
2521 18 2
2521 19 1
2521 28 1
2522 15 1
2523 34 1
2524 24 5
2524 31 2
2525 12 1
2525 14 2
2526 5 1
2527 29 3
2527 30 1
2528 29 22
2529 2 6
2529 3 3
2529 26 2
2529 31 5
2529 34 7
2530 24 4
2530 29 3
2531 24 1
2532 23 1
2532 24 14
2533 2 7
2533 3 10
2533 9 1
2533 34 5
2534 24 1
2534 29 1
2535 22 1
2536 38 1
2537 34 1
2538 5 1
2539 24 1
2539 31 1
2540 28 1
2541 3 1
2542 1 1
2542 2 10
2542 3 28
2542 34 30
2543 29 15
2543 30 1
2544 2 1
2544 21 4
2544 22 2
2545 12 4
2545 14 2
2546 29 6
2547 3 1
2548 12 1
2548 21 16
2548 22 10
2549 31 1
2550 5 1
2551 5 1
2552 4 1
2553 21 1
2554 8 3
2554 9 1
2554 24 5
2555 28 2
2556 2 6
2556 3 8
2556 34 10
2557 29 4
2558 21 6
2558 22 9
2559 3 1
2559 34 1
2560 34 1
2561 29 1
2562 12 1
2562 19 2
2562 21 1
2562 22 1
2563 3 1
2564 8 1
2565 2 1
2565 3 3
2565 34 3
2566 24 1
2567 28 3
2568 34 1
2569 24 1
2569 31 2
2570 28 1
2571 38 1
2572 19 1
2573 12 1
2573 14 6
2573 21 1
2574 18 1
2575 22 1
2576 3 1
2576 10 1
2577 24 1
2578 2 2
2578 3 9
2578 34 5
2579 24 1
2580 5 1
2581 34 1
2582 19 2
2582 31 1
2583 29 1
2584 26 13
2585 3 1
2585 38 2
2586 14 3
2587 38 1
2588 2 1
2589 23 1
2589 24 16
2590 3 1
2590 29 1
2591 9 1
2591 34 1
2592 34 1
2593 26 1
2594 1 1
2594 2 5
2594 3 8
2594 26 2
2594 31 5
2594 34 7
2595 3 1
2595 24 8
2596 9 9
2596 10 5
2596 11 3
2597 15 1
2597 26 8
2598 9 1
2598 10 3
2598 11 2
2599 4 4
2599 5 18
2599 38 17
2600 11 1
2601 2 1
2601 3 1
2602 20 1
2603 2 1
2603 3 6
2603 34 15
2604 19 1
2605 3 1
2606 3 1
2606 19 1
2606 29 2
2606 38 1
2607 2 12
2607 3 24
2607 34 39
2608 21 1
2609 34 1
2610 1 1
2610 2 24
2610 3 38
2610 34 44
2611 2 14
2611 3 41
2611 34 50
2612 34 1
2613 12 1
2614 21 1
2615 27 1
2616 34 1
2617 2 1
2618 34 1
2619 2 1
2620 34 1
2621 26 1
2621 29 1
2621 38 1
2622 12 4
2622 13 1
2622 14 1
2623 19 1
2623 28 1
2624 8 2
2624 11 1
2624 34 1
2625 9 9
2625 10 11
2625 11 3
2625 38 1
2626 18 37
2626 19 40
2626 20 15
2627 10 1
2628 28 6
2629 3 2
2629 24 8
2630 24 1
2631 3 1
2631 15 1
2632 18 1
2633 24 1
2634 19 1
2635 15 1
2636 18 4
2636 19 11
2636 20 6
2637 3 1
2637 22 1
2638 12 4
2638 14 3
2638 21 2
2638 26 5
2638 38 2
2639 3 1
2640 25 1
2640 26 4
2641 21 5
2641 22 5
2641 29 1
2642 2 1
2642 11 1
2642 28 2
2642 34 1
2643 19 1
2644 12 6
2644 14 1
2644 20 1
2645 12 1
2645 29 2
2646 3 1
2647 11 1
2647 24 2
2647 29 1
2648 21 4
2648 22 4
2649 12 1
2650 38 1
2651 24 1
2652 3 1
2653 2 8
2653 3 14
2653 34 18
2654 34 1
2655 1 2
2655 2 24
2655 3 25
2655 34 32
2656 14 1
2657 2 1
2658 5 1
2659 2 5
2659 3 12
2659 7 1
2659 26 3
2659 34 16
2660 18 1
2661 22 1
2662 29 2
2663 10 1
2663 17 1
2664 10 1
2665 3 1
2665 18 1
2666 3 1
2667 20 1
2667 29 1
2667 34 1
2668 24 1
2669 9 11
2669 10 27
2669 11 9
2670 29 26
2670 30 2
2671 4 1
2671 5 5
2671 38 13
2672 38 1
2673 5 1
2673 29 6
2674 7 1
2675 2 1
2676 25 2
2676 26 2
2677 7 3
2677 8 32
2678 3 1
2679 3 1
2679 18 1
2680 34 1
2681 10 1
2681 34 1
2682 5 1
2682 15 19
2682 16 18
2682 17 17
2682 18 1
2682 34 1
2683 21 1
2683 24 1
2684 28 2
2684 34 1
2685 12 13
2685 13 1
2685 14 12
2685 20 1
2686 38 1
2687 7 6
2687 8 2
2688 1 2
2689 10 1
2690 24 1
2691 24 17
2692 23 1
2692 24 12
2693 34 1
2694 29 13
2695 21 1
2696 29 1
2697 7 1
2697 8 3
2698 24 1
2699 24 2
2699 29 4
2699 30 1
2700 18 1
2701 5 1
2701 21 26
2701 22 21
2702 2 1
2702 19 1
2702 31 1
2703 28 5
2704 29 4
2704 30 1
2705 5 3
2705 16 1
2705 38 5
2706 16 1
2707 28 2
2708 11 1
2709 24 2
2709 38 1
2710 28 2
2710 38 1
2711 38 2
2712 28 1
2713 34 1
2714 12 11
2714 14 11
2715 22 1
2715 31 1
2716 21 1
2716 29 3
2717 34 1
2718 5 9
2718 38 6
2719 29 16
2719 30 1
2720 26 2
2721 18 1
2722 2 1
2723 29 1
2724 5 1
2725 12 29
2725 13 3
2725 14 9
2725 29 1
2726 38 1
2727 18 3
2727 19 2
2727 20 1
2727 21 17
2727 22 10
2728 24 1
2729 14 1
2730 7 1
2730 11 1
2731 29 11
2731 30 1
2732 3 1
2732 34 1
2733 28 1
2733 31 1
2734 18 4
2734 19 1
2734 21 1
2735 2 1
2735 18 49
2735 19 62
2735 20 24
2736 34 1
2737 2 22
2737 3 45
2737 29 1
2737 34 32
2738 15 1
2739 4 4
2739 5 1
2739 16 1
2739 38 3
2740 3 1
2741 12 1
2742 8 1
2743 5 1
2743 8 1
2743 21 20
2743 22 10
2744 4 1
2744 5 4
2744 15 1
2744 38 9
2745 1 3
2745 2 30
2745 3 62
2745 34 70
2746 16 1
2746 31 5
2747 12 1
2748 29 1
2750 28 1
2750 29 1
2751 10 2
2752 14 1
2753 3 1
2753 19 1
2753 29 3
2754 38 1
2755 38 1
2756 2 1
2757 7 1
2758 5 1
2758 34 1
2759 14 1
2760 7 4
2760 8 7
2761 2 3
2761 3 1
2761 24 3
2761 34 1
2762 19 1
2763 5 1
2764 14 1
2765 38 1
2766 2 1
2767 8 5
2767 10 1
2767 28 1
2767 31 1
2768 17 1
2769 29 6
2769 30 1
2769 31 3
2769 38 1
2770 3 1
2771 18 6
2771 19 3
2771 20 3
2772 34 1
2773 19 1
2774 29 1
2775 31 1
2776 24 1
2777 11 1
2778 26 3
2779 24 2
2780 31 2
2781 21 1
2782 24 1
2783 25 2
2783 26 6
2783 34 1
2784 4 1
2784 31 2
2785 24 1
2785 28 1
2785 29 1
2785 34 1
2785 38 1
2786 21 52
2786 22 37
2787 19 2
2787 20 1
2788 22 1
2789 24 1
2789 34 1
2790 5 1
2791 9 1
2791 29 1
2791 31 1
2792 24 2
2793 3 1
2793 18 1
2793 31 9
2793 33 1
2793 34 1
2794 24 1
2795 3 1
2796 18 6
2796 19 5
2796 20 3
2796 38 1
2797 15 4
2797 17 1
2797 18 5
2797 19 12
2797 20 4
2797 24 1
2798 26 4
2798 29 1
2799 22 1
2800 10 1
2800 19 1
2801 11 1
2802 23 1
2802 24 15
2803 29 1
2804 19 1
2805 34 1
2806 4 1
2807 15 10
2807 16 6
2807 17 19
2808 15 2
2808 16 2
2808 17 1
2809 2 2
2809 3 1
2809 34 4
2810 4 1
2811 20 1
2811 21 1
2811 24 1
2811 31 14
2812 29 1
2813 3 1
2814 12 2
2814 28 1
2814 34 1
2815 3 1
2816 24 3
2817 29 9
2817 30 1
2817 38 1
2818 34 1
2819 26 3
2819 30 1
2820 15 2
2820 17 3
2821 11 1
2822 5 1
2823 4 8
2823 5 34
2823 38 52
2824 2 16
2824 3 17
2824 34 18
2825 19 1
2826 12 29
2826 13 1
2826 14 18
2827 29 4
2828 20 1
2829 34 1
2830 19 1
2831 1 1
2831 2 9
2831 3 6
2831 34 11
2832 9 2
2832 10 2
2833 18 36
2833 19 36
2833 20 22
2834 9 1
2834 28 5
2834 34 1
2835 3 1
2835 31 7
2836 15 4
2836 16 7
2836 17 1
2837 18 1
2838 38 1
2839 12 1
2840 19 1
2840 22 1
2841 31 1
2842 20 1
2842 26 1
2842 34 1
2843 15 1
2843 17 2
2844 20 1
2845 19 1
2845 21 5
2845 22 7
2846 3 1
2846 34 1
2847 21 1
2848 7 1
2849 22 2
2850 38 1
2851 31 3
2852 38 1
2853 4 20
2853 5 93
2853 21 1
2853 38 82
2854 1 1
2854 2 14
2854 3 25
2854 28 1
2854 34 27
2855 38 1
2856 38 1
2857 7 12
2857 8 8
2858 18 10
2858 19 14
2858 20 5
2859 19 1
2860 24 4
2861 18 1
2862 18 2
2862 19 2
2862 20 1
2863 28 1
2863 29 1
2864 21 1
2865 26 1
2865 31 7
2865 34 2
2866 8 1
2867 29 13
2868 24 1
2868 34 1
2869 4 8
2869 5 33
2869 24 17
2869 29 6
2869 38 34
2870 34 1
2871 29 2
2872 25 1
2872 26 5
2872 29 1
2873 29 7
2874 15 2
2875 2 1
2875 23 1
2875 24 7
2875 38 1
2876 3 1
2876 24 6
2877 24 1
2877 34 1
2878 4 1
2878 5 10
2878 38 6
2879 29 1
2880 5 1
2880 9 4
2880 10 4
2880 11 4
2881 29 1
2882 15 2
2882 16 1
2883 7 2
2883 8 5
2884 2 2
2884 3 2
2884 29 2
2884 30 2
2884 34 3
2885 11 1
2886 24 1
2887 34 1
2888 26 2
2889 3 1
2889 4 3
2889 5 20
2889 38 11
2890 12 5
2890 14 2
2891 34 1
2892 8 2
2893 31 6
2894 27 1
2894 28 1
2895 18 1
2896 18 1
2897 19 1
2897 26 8
2898 3 1
2898 4 15
2898 5 43
2898 18 1
2898 21 1
2898 38 40
2899 3 1
2900 3 1
2900 34 1
2901 15 9
2901 16 1
2901 17 4
2902 9 1
2902 24 2
2902 29 2
2902 34 1
2902 38 1
2903 26 1
2903 31 2
2903 33 1
2904 21 2
2906 4 1
2906 5 19
2906 38 22
2907 34 1
2908 7 1
2908 8 3
2909 17 1
2910 2 2
2910 3 2
2910 29 8
2910 34 8
2911 12 3
2911 14 2
2911 26 1
2912 18 1
2912 19 1
2913 24 1
2914 34 1
2915 29 18
2915 30 1
2916 4 4
2916 5 24
2916 34 1
2916 38 30
2917 21 1
2918 24 1
2919 38 1
2920 28 1
2921 3 1
2922 24 1
2923 2 7
2923 3 9
2923 29 6
2923 34 16
2924 15 20
2924 16 8
2924 17 9
2925 9 15
2925 10 25
2925 11 18
2925 38 1
2926 38 1
2927 24 1
2928 20 1
2929 5 1
2930 21 9
2930 22 10
2931 24 1
2932 3 2
2932 5 2
2932 38 1
2933 31 1
2934 10 1
2935 21 1
2936 8 1
2936 23 1
2936 24 18
2937 11 1
2938 19 1
2939 21 1
2940 34 1
2941 15 2
2941 16 1
2941 21 1
2942 2 1
2943 20 1
2944 24 1
2945 7 5
2945 8 4
2946 29 1
2947 31 1
2948 38 1
2949 3 2
2949 19 1
2950 4 10
2950 5 36
2950 38 39
2951 38 1
2952 18 6
2952 19 11
2952 20 1
2952 31 1
2953 14 1
2953 18 7
2953 19 10
2953 20 6
2954 5 1
2954 8 1
2954 31 7
2955 34 1
2956 38 2
2957 38 1
2958 2 1
2958 4 19
2958 5 73
2958 38 105
2959 9 1
2960 3 1
2960 21 1
2960 26 1
2961 3 2
2962 26 1
2963 5 1
2963 29 15
2964 21 1
2964 24 2
2965 38 1
2966 24 1
2967 21 2
2967 22 1
2968 29 1
2969 2 6
2969 3 11
2969 24 1
2969 29 1
2969 34 44
2970 9 1
2971 5 1
2971 38 5
2972 12 1
2973 34 1
2974 29 1
2975 31 1
2976 18 1
2976 21 10
2976 22 2
2976 34 1
2977 24 2
2978 22 1
2979 9 7
2979 10 5
2979 11 2
2979 15 12
2979 16 13
2979 17 6
2980 24 20
2981 38 1
2982 3 1
2983 15 1
2984 31 3
2985 29 34
2985 30 1
2986 2 1
2987 34 1
2988 3 1
2989 7 1
2989 22 1
2989 38 1
2990 5 4
2990 38 2
2991 14 1
2992 2 1
2993 12 4
2993 14 2
2994 34 1
2995 4 6
2995 5 28
2995 38 25
2996 8 1
2996 28 2
2997 24 1
2998 21 2
2998 34 1
2999 14 1
3000 5 1
3001 2 3
3001 3 2
3001 34 1
3002 5 1
3003 25 1
3003 26 2
3004 7 2
3004 18 4
3004 19 3
3004 20 2
3005 12 1
3005 28 7
3005 34 1
3006 5 1
3007 3 1
3007 24 1
3007 26 3
3007 38 1
3008 3 1
3008 28 5
3009 26 1
3009 38 2
3010 21 2
3010 22 2
3010 34 1
3011 24 1
3012 8 1
3013 8 1
3013 19 1
3014 29 2
3014 34 1
3015 7 1
3015 8 3
3015 18 6
3015 19 5
3015 20 2
3016 12 17
3016 13 1
3016 14 15
3017 2 1
3018 2 1
3018 29 3
3019 19 1
3020 7 1
3021 31 1
3022 29 5
3023 38 1
3024 38 1
3025 28 4
3026 12 1
3027 4 1
3028 9 1
3029 3 2
3029 9 1
3030 26 6
3030 34 1
3031 18 1
3032 7 4
3032 8 7
3032 24 1
3032 29 1
3033 29 3
3034 34 1
3035 31 1
3036 4 8
3036 5 28
3036 34 1
3036 38 38
3037 24 1
3038 24 1
3039 24 3
3040 19 1
3041 26 1
3042 9 3
3042 10 9
3042 11 5
3042 24 1
3043 24 6
3044 38 1
3045 12 1
3045 14 2
3046 10 1
3047 8 1
3048 4 1
3048 38 3
3049 18 5
3049 19 2
3049 20 1
3050 34 1
3051 21 17
3051 22 8
3052 14 1
3052 15 1
3052 18 1
3052 19 1
3052 24 2
3053 2 4
3053 3 6
3053 34 4
3054 12 1
3055 12 1
3056 3 3
3056 34 2
3057 24 2
3057 25 2
3057 26 4
3058 10 2
3058 11 1
3058 22 1
3059 21 2
3059 22 1
3060 19 1
3061 18 13
3061 19 26
3061 20 14
3062 21 40
3062 22 23
3062 31 1
3063 29 1
3064 10 1
3065 4 1
3065 24 2
3066 26 1
3067 3 1
3068 2 1
3068 29 1
3068 34 4
3069 31 4
3069 38 1
3070 18 1
3071 38 1
3072 24 1
3072 25 1
3072 26 13
3072 29 2
3073 5 4
3073 38 13
3074 18 2
3074 19 1
3074 20 1
3075 2 4
3075 3 3
3075 15 1
3075 34 2
3076 26 2
3077 21 1
3078 34 1
3079 18 1
3080 24 4
3081 26 1
3082 10 1
3083 19 1
3083 24 1
3083 34 1
3084 34 1
3085 21 15
3085 22 12
3086 2 13
3086 3 50
3086 24 16
3086 34 55
3087 26 4
3087 31 1
3088 26 3
3088 29 11
3088 30 1
3089 19 1
3090 31 1
3091 5 1
3091 34 1
3091 38 1
3092 18 2
3092 19 2
3092 20 1
3093 29 5
3093 30 1
3093 34 1
3094 8 1
3095 3 1
3096 23 1
3096 24 6
3097 3 1
3098 2 1
3098 29 15
3098 30 1
3098 34 1
3099 24 3
3100 38 1
3101 4 1
3101 5 4
3101 12 1
3101 19 1
3101 21 1
3101 22 1
3101 38 1
3102 29 1
3102 31 2
3102 38 1
3103 19 1
3103 24 1
3104 29 1
3105 20 1
3106 15 1
3107 29 8
3108 12 1
3108 34 1
3108 38 1
3109 25 1
3109 26 16
3110 3 1
3111 31 1
3112 21 2
3112 22 2
3113 4 2
3113 5 5
3113 31 1
3113 34 1
3113 38 9
3114 21 1
3115 2 1
3116 2 5
3116 3 8
3116 24 1
3116 28 1
3116 31 1
3116 34 11
3117 25 2
3117 26 5
3117 29 1
3117 34 1
3118 3 1
3119 7 5
3119 8 9
3119 29 1
3120 2 1
3121 18 1
3122 2 11
3122 3 38
3122 20 1
3122 34 52
3123 31 1
3124 5 1
3124 34 1
3125 29 26
3125 30 1
3125 34 1
3126 21 16
3126 22 7
3126 28 2
3127 8 1
3128 15 40
3128 16 25
3128 17 31
3128 24 1
3129 9 13
3129 10 34
3129 11 17
3130 8 1
3130 12 1
3131 7 1
3132 9 1
3133 4 2
3133 5 17
3133 7 3
3133 8 13
3133 14 1
3133 16 2
3133 21 1
3133 26 2
3133 29 11
3133 31 11
3133 38 17
3134 5 1
3135 18 39
3135 19 41
3135 20 32
3135 24 6
3136 5 1
3137 12 16
3137 13 1
3137 14 8
3137 34 2
3138 34 1
3139 19 1
3140 21 17
3140 22 14
3140 24 1
3140 38 2
3141 1 1
3142 4 4
3142 5 15
3142 38 30
3143 19 1
3144 34 1
3145 9 1
3145 10 1
3145 11 1
3145 34 1
3146 1 1
3146 5 4
3146 38 1
3147 21 23
3147 22 13
3147 24 1
3148 26 6
3149 29 2
3150 9 29
3150 10 43
3150 11 13
3151 29 2
3152 38 1
3153 3 1
3154 29 26
3154 30 1
3155 8 1
3156 16 1
3157 25 1
3157 26 17
3158 21 8
3158 22 10
3159 18 1
3159 21 1
3160 24 2
3161 38 1
3162 10 1
3163 18 1
3164 2 1
3165 24 1
3165 29 2
3165 30 1
3166 19 3
3166 20 2
3166 21 1
3167 15 1
3167 16 1
3167 17 1
3168 18 13
3168 19 24
3168 20 4
3168 22 1
3169 26 5
3169 28 1
3169 29 1
3170 2 1
3170 18 1
3171 9 1
3172 2 1
3172 23 1
3172 24 10
3172 25 1
3172 26 7
3172 34 1
3173 28 7
3174 23 1
3174 24 5
3174 29 6
3175 5 1
3175 29 13
3175 30 2
3176 38 1
3177 17 1
3178 34 1
3179 3 1
3180 4 11
3180 5 51
3180 22 1
3180 38 48
3181 2 2
3181 3 18
3181 34 15
3182 21 1
3182 28 1
3183 19 1
3184 2 1
3184 3 5
3184 18 1
3184 24 1
3184 34 3
3185 11 1
3186 21 6
3186 22 8
3186 26 1
3186 28 6
3187 38 1
3188 4 1
3189 28 1
3190 21 23
3190 22 29
3190 38 1
3191 38 1
3192 5 2
3193 9 9
3193 10 9
3193 11 7
3194 12 1
3194 23 1
3194 24 3
3195 18 1
3195 24 1
3196 18 8
3196 19 8
3196 20 1
3196 22 1
3197 4 18
3197 5 71
3197 38 102
3198 29 5
3198 34 1
3199 18 1
3200 2 2
3200 34 3
3201 4 2
3201 5 10
3201 38 18
3202 8 1
3202 29 24
3202 30 1
3202 34 1
3203 24 1
3204 14 1
3204 26 7
3205 29 4
3205 33 1
3205 38 1
3206 3 1
3207 2 1
3208 23 1
3208 24 40
3208 31 15
3209 24 1
3210 4 1
3211 18 1
3212 38 1
3213 19 1
3214 21 1
3215 21 22
3215 22 11
3216 9 3
3216 10 4
3216 11 1
3217 19 1
3217 28 2
3218 9 1
3218 10 2
3218 11 1
3219 8 1
3219 29 11
3220 24 1
3221 5 1
3221 31 1
3222 31 5
3223 4 4
3223 5 13
3223 26 1
3223 38 14
3224 22 1
3225 3 1
3226 29 1
3226 31 1
3227 3 1
3228 12 11
3228 14 13
3229 24 5
3230 29 2
3231 21 1
3231 22 2
3232 21 1
3233 21 1
3234 15 1
3234 22 1
3234 24 6
3235 11 1
3235 12 2
3235 18 1
3236 4 1
3236 24 16
3236 34 1
3237 31 1
3238 19 1
3238 22 1
3239 18 3
3239 19 6
3239 20 3
3240 38 1
3241 10 1
3242 4 10
3242 5 39
3242 38 46
3243 28 3
3244 21 30
3244 22 18
3245 24 1
3246 21 1
3247 12 1
3247 31 1
3248 31 6
3249 10 1
3249 34 1
3250 12 9
3250 14 5
3251 21 1
3252 24 1
3253 19 1
3254 24 1
3254 30 1
3255 9 6
3255 10 8
3255 11 5
3256 7 3
3256 8 5
3256 18 1
3256 26 1
3257 10 1
3257 17 1
3257 18 1
3257 24 1
3257 34 1
3257 38 1
3258 3 1
3259 7 8
3259 8 10
3260 19 1
3261 19 1
3263 12 1
3264 34 1
3265 2 2
3265 3 17
3265 29 1
3265 34 12
3266 10 1
3267 38 1
3268 19 1
3268 24 1
3269 19 1
3270 8 1
3270 21 1
3271 22 1
3272 24 5
3273 24 10
3274 2 9
3274 3 8
3274 4 1
3274 34 8
3275 18 1
3276 14 1
3277 24 6
3278 19 1
3278 24 17
3279 9 3
3279 10 5
3279 11 3
3280 26 3
3281 31 1
3282 4 1
3283 5 1
3283 26 6
3284 4 1
3284 28 2
3285 4 14
3285 5 53
3285 38 56
3286 7 3
3286 18 1
3286 19 2
3286 38 1
3287 5 1
3287 19 1
3288 26 1
3289 3 1
3290 19 1
3291 29 22
3291 30 1
3292 1 1
3292 2 9
3292 3 16
3292 21 1
3292 34 32
3293 10 1
3293 21 3
3293 22 3
3294 1 1
3295 24 1
3296 3 1
3297 24 1
3298 7 2
3299 38 1
3300 24 16
3301 24 4
3302 38 2
3303 28 4
3304 21 1
3304 29 3
3305 3 1
3306 2 7
3306 3 1
3306 19 1
3306 34 3
3307 4 1
3307 5 11
3307 22 1
3307 38 10
3308 2 2
3308 3 4
3308 24 1
3308 31 2
3308 34 4
3309 2 1
3310 12 16
3310 14 11
3311 38 1
3312 26 1
3313 26 1
3314 12 1
3316 2 1
3317 3 1
3318 21 1
3319 3 2
3319 10 1
3319 21 14
3319 22 9
3320 12 1
3321 34 1
3322 38 1
3323 3 1
3324 29 1
3325 26 2
3326 24 2
3327 7 3
3327 8 6
3327 18 11
3327 19 15
3327 20 5
3328 11 1
3328 38 1
3329 19 1
3330 2 1
3330 3 1
3330 12 1
3330 34 3
3331 2 11
3331 3 10
3331 24 3
3331 31 3
3331 34 14
3332 21 1
3333 31 10
3333 33 1
3334 34 1
3335 29 4
3335 34 1
3336 38 1
3337 2 1
3337 21 1
3338 34 2
3339 10 3
3340 34 1
3341 8 1
3341 11 1
3341 24 31
3342 1 2
3342 2 7
3342 3 33
3342 34 27
3343 34 1
3344 2 6
3344 3 8
3344 31 5
3344 34 14
3345 34 1
3346 5 1
3346 34 1
3347 2 1
3347 3 1
3348 24 15
3349 3 1
3349 28 1
3350 20 1
3351 34 1
3352 12 8
3352 14 3
3353 29 1
3354 5 1
3355 2 1
3355 10 1
3356 22 2
3357 18 1
3358 24 1
3359 24 5
3360 18 1
3361 2 2
3361 3 2
3361 7 1
3361 24 1
3361 29 3
3361 34 1
3362 2 8
3362 3 10
3362 21 11
3362 22 5
3362 24 2
3362 25 1
3362 26 3
3362 34 11
3362 38 1
3363 28 1
3364 15 1
3364 18 9
3364 19 12
3364 20 6
3365 9 1
3365 10 3
3365 11 2
3365 18 25
3365 19 46
3365 20 16
3366 26 8
3367 31 15
3368 34 1
3369 9 2
3369 10 11
3369 11 5
3369 23 1
3369 24 17
3369 34 1
3370 15 1
3371 19 1
3372 10 1
3372 15 15
3372 16 9
3372 17 4
3372 21 1
3373 19 1
3374 3 1
3374 28 7
3375 24 1
3376 4 3
3376 5 5
3376 38 13
3377 19 1
3377 31 2
3378 24 1
3379 2 21
3379 3 35
3379 14 1
3379 34 36
3380 5 4
3381 20 1
3382 9 21
3382 10 55
3382 11 30
3383 17 1
3383 24 7
3384 19 1
3384 38 1
3385 29 21
3385 30 2
3386 38 1
3387 3 1
3387 7 8
3387 8 12
3387 24 1
3388 22 1
3389 38 1
3390 22 1
3390 29 3
3391 5 1
3391 12 1
3392 22 1
3392 24 1
3393 24 27
3394 4 2
3394 5 15
3394 38 23
3395 14 1
3396 34 1
3397 34 1
3398 15 17
3398 16 13
3398 17 24
3399 10 1
3400 15 13
3400 16 7
3400 17 3
3401 19 1
3402 12 7
3402 14 3
3403 5 1
3403 29 1
3403 38 1
3404 31 3
3405 29 1
3406 21 1
3407 29 23
3408 12 17
3408 14 18
3409 31 2
3410 24 1
3410 28 1
3411 29 9
3411 30 1
3412 2 1
3412 5 1
3412 26 1
3412 29 1
3413 29 1
3414 38 1
3415 8 1
3415 18 4
3415 19 11
3415 20 2
3415 34 1
3416 34 1
3417 24 5
3417 29 15
3418 10 1
3418 24 33
3418 34 1
3419 20 1
3420 3 5
3420 21 1
3420 34 3
3421 29 1
3422 12 4
3422 14 5
3423 29 9
3423 30 1
3424 24 2
3425 38 1
3426 5 1
3426 29 1
3427 12 1
3428 12 1
3428 34 1
3429 15 1
3430 29 1
3431 21 1
3432 2 7
3432 3 36
3432 5 1
3432 9 1
3432 34 64
3432 38 1
3433 15 1
3434 28 1
3435 18 5
3435 19 7
3435 20 2
3435 29 1
3436 18 9
3436 19 15
3436 20 2
3437 10 1
3437 29 12
3437 30 2
3437 38 1
3438 38 1
3439 9 8
3439 10 16
3439 11 8
3439 18 21
3439 19 28
3439 20 7
3440 34 1
3441 12 2
3441 21 1
3441 26 1
3442 31 3
3443 11 1
3444 28 1
3445 12 1
3446 10 1
3446 26 2
3447 29 6
3447 30 1
3448 12 2
3448 14 4
3448 24 1
3449 19 1
3450 4 1
3450 29 1
3451 12 1
3452 3 1
3452 4 8
3452 5 35
3452 38 51
3453 22 1
3453 31 2
3454 7 3
3454 8 6
3455 21 1
3456 2 3
3456 3 5
3456 26 3
3456 31 1
3456 34 8
3457 24 1
3458 24 4
3459 19 1
3460 28 1
3460 29 5
3460 31 1
3461 25 1
3461 26 9
3461 29 4
3462 3 1
3462 7 1
3462 12 1
3462 14 4
3463 21 1
3464 3 1
3464 34 1
3465 7 2
3465 8 4
3465 38 1
3466 19 1
3466 38 1
3467 24 1
3468 3 1
3468 5 1
3468 8 1
3469 3 1
3469 7 1
3470 1 1
3470 2 31
3470 3 72
3470 34 85
3470 38 1
3471 34 1
3472 20 1
3473 29 1
3474 24 1
3474 34 1
3475 5 1
3475 12 1
3475 26 2
3475 29 2
3475 30 1
3476 15 10
3476 16 3
3476 17 4
3476 34 1
3477 19 1
3478 28 2
3478 29 5
3478 30 1
3479 2 1
3480 5 1
3480 31 14
3481 38 1
3482 38 1
3483 3 2
3483 5 1
3483 22 1
3484 29 1
3485 19 1
3485 29 25
3485 30 1
3486 38 1
3487 21 25
3487 22 24
3488 21 10
3488 22 7
3489 34 1
3490 7 5
3490 8 9
3491 34 1
3492 34 1
3493 18 1
3493 19 7
3493 20 1
3494 18 1
3494 19 1
3495 31 1
3496 9 1
3496 10 1
3497 29 8
3497 30 1
3498 28 1
3499 1 1
3499 2 12
3499 3 36
3499 34 22
3500 22 1
3501 29 2
3502 5 1
3503 19 1
3503 24 5
3504 21 1
3505 3 1
3505 28 2
3506 38 1
3507 19 1
3507 24 1
3507 31 13
3508 19 1
3509 5 1
3509 26 5
3510 26 3
3511 21 57
3511 22 30
3512 23 2
3512 24 9
3513 2 1
3513 20 1
3514 38 1
3515 2 1
3515 28 2
3515 34 1
3516 20 1
3517 5 1
3517 14 1
3517 28 2
3518 21 1
3518 22 3
3519 2 1
3520 5 1
3521 7 1
3521 18 1
3521 29 1
3522 21 2
3522 22 1
3523 19 1
3524 38 1
3525 19 1
3526 28 2
3527 34 1
3528 5 1
3528 24 1
3528 29 9
3529 4 2
3529 5 14
3529 24 1
3529 38 16
3530 10 1
3530 22 1
3531 34 1
3532 2 1
3533 34 1
3534 38 1
3535 7 1
3536 5 1
3537 17 1
3537 34 1
3538 3 1
3538 25 1
3538 26 8
3539 29 1
3540 31 4
3541 19 1
3541 34 1
3542 22 1
3543 7 1
3544 24 1
3545 34 1
3546 34 1
3547 29 3
3547 30 1
3548 4 3
3548 5 7
3548 18 1
3548 19 4
3548 20 1
3548 28 5
3548 33 1
3548 34 1
3548 38 12
3549 5 1
3550 14 1
3550 18 18
3550 19 20
3550 20 11
3550 28 2
3551 4 2
3551 5 1
3551 38 2
3552 34 1
3553 2 18
3553 3 29
3553 29 1
3553 34 45
3554 24 6
3555 38 1
3556 21 1
3556 29 12
3556 30 2
3557 13 1
3557 14 1
3558 3 1
3559 29 5
3560 3 1
3560 10 1
3561 9 5
3561 10 6
3561 11 5
3561 15 1
3562 34 1
3563 38 2
3564 34 1
3565 34 1
3566 19 1
3567 29 1
3568 29 1
3569 9 1
3569 31 3
3570 3 1
3570 4 1
3570 34 1
3571 5 1
3572 24 1
3573 9 5
3573 10 10
3573 11 4
3574 15 1
3575 5 1
3576 19 1
3577 5 1
3577 21 1
3578 3 1
3578 18 1
3578 19 1
3579 12 1
3580 2 11
3580 3 32
3580 19 1
3580 29 8
3580 30 1
3580 34 27
3581 19 1
3582 2 1
3582 18 11
3582 19 14
3582 20 3
3583 34 1
3584 18 1
3585 3 1
3585 31 2
3585 34 1
3586 3 1
3586 21 1
3587 3 1
3588 22 1
3589 24 3
3590 2 1
3590 19 1
3590 24 1
3590 34 1
3591 2 3
3591 3 2
3591 25 1
3591 26 3
3591 34 6
3592 9 1
3593 31 1
3594 3 1
3595 19 1
3596 7 1
3596 8 3
3597 8 1
3598 34 1
3599 2 2
3599 3 4
3599 5 1
3600 4 1
3600 5 1
3600 29 1
3600 34 1
3601 4 1
3601 12 3
3601 14 3
3601 38 4
3602 34 1
3603 2 17
3603 3 27
3603 34 43
3604 3 1
3604 9 27
3604 10 60
3604 11 21
3604 18 1
3605 34 1
3606 3 1
3607 28 2
3608 2 2
3608 3 2
3609 5 1
3610 10 1
3610 12 1
3610 34 1
3611 18 3
3611 19 4
3611 20 1
3612 26 1
3613 19 1
3614 10 1
3614 38 1
3615 29 1
3616 3 1
3616 19 1
3617 8 2
3618 7 13
3618 8 31
3618 19 1
3618 24 1
3619 29 1
3619 34 1
3620 11 2
3620 29 1
3621 31 1
3622 10 1
3622 20 1
3623 3 1
3624 15 1
3624 29 7
3625 12 1
3625 24 10
3626 4 1
3626 5 2
3626 24 1
3626 38 3
3627 24 1
3627 34 1
3628 21 11
3628 22 4
3629 18 1
3630 2 9
3630 3 13
3630 34 11
3631 5 1
3631 18 4
3631 19 10
3631 20 2
3631 22 1
3632 22 1
3633 3 1
3633 5 3
3633 31 1
3633 38 3
3634 2 1
3634 14 1
3634 34 1
3635 19 1
3636 34 1
3637 26 11
3637 29 1
3638 24 1
3639 34 1
3640 18 1
3641 8 1
3641 29 8
3642 12 8
3642 14 3
3643 34 1
3644 4 3
3644 5 11
3644 38 8
3645 5 1
3646 5 1
3647 5 1
3647 31 1
3647 34 1
3648 18 1
3649 18 1
3649 19 3
3649 20 2
3649 21 7
3649 22 6
3649 38 1
3650 5 1
3650 24 3
3650 28 5
3651 31 2
3652 8 1
3652 18 1
3652 19 1
3653 38 1
3654 7 13
3654 8 22
3654 31 1
3655 3 1
3655 18 2
3655 19 4
3655 20 2
3655 21 2
3655 22 1
3655 25 1
3655 26 5
3656 18 11
3656 19 10
3656 20 7
3656 21 5
3656 22 7
3656 30 1
3657 16 1
3657 28 6
3658 24 26
3659 12 6
3659 14 2
3659 15 20
3659 16 15
3659 17 12
3659 34 1
3660 16 1
3661 34 1
3662 2 8
3662 3 17
3662 34 14
3663 18 1
3664 3 1
3664 5 1
3664 24 1
3665 24 2
3665 26 2
3666 19 1
3667 21 2
3667 22 4
3667 26 1
3667 31 1
3668 2 5
3668 3 20
3668 29 6
3668 34 19
3669 23 1
3669 24 12
3669 26 2
3670 24 1
3671 2 7
3671 3 8
3671 34 22
3672 5 1
3673 3 2
3674 9 1
3674 11 3
3675 29 2
3675 31 6
3676 2 1
3677 29 3
3678 8 1
3678 29 19
3678 30 1
3679 34 1
3680 3 1
3681 9 1
3682 24 13
3683 8 1
3683 19 1
3683 29 1
3684 2 1
3684 23 1
3684 24 2
3684 28 1
3685 15 1
3686 2 1
3687 12 6
3687 13 1
3687 14 1
3688 12 1
3689 28 1
3689 29 10
3690 24 1
3691 12 3
3691 13 1
3692 15 8
3692 16 3
3692 17 14
3692 18 27
3692 19 34
3692 20 12
3693 28 7
3694 9 1
3694 11 2
3695 34 1
3696 3 1
3697 1 1
3697 2 34
3697 3 69
3697 21 1
3697 24 1
3697 34 72
3697 38 1
3698 29 1
3699 31 18
3700 3 1
3701 22 1
3701 31 2
3702 38 1
3703 38 1
3704 24 1
3705 29 9
3706 29 1
3707 12 4
3707 14 2
3707 38 1
3708 19 1
3709 19 1
3709 24 8
3710 2 1
3711 2 1
3711 24 3
3712 3 1
3712 29 1
3713 31 1
3714 31 1
3715 31 2
3716 29 2
3717 7 1
3717 8 1
3717 24 1
3718 3 1
3718 22 1
3719 4 4
3719 5 19
3719 38 19
3720 19 1
3721 38 1
3722 18 1
3723 29 4
3723 30 1
3724 18 1
3724 20 1
3725 22 1
3726 19 1
3726 26 2
3726 29 19
3727 1 1
3727 2 5
3727 3 6
3727 23 1
3727 24 9
3727 34 13
3728 29 6
3728 34 1
3729 30 1
3730 24 1
3731 3 1
3731 29 2
3731 30 1
3732 18 1
3733 10 1
3733 28 11
3734 21 1
3735 29 1
3736 5 1
3736 29 7
3736 38 1
3737 9 2
3737 10 2
3737 11 2
3738 4 1
3738 5 3
3738 21 2
3738 22 1
3738 29 12
3738 34 1
3738 38 3
3739 18 1
3740 34 1
3741 2 1
3742 29 17
3742 30 1
3743 38 1
3744 1 1
3744 2 3
3744 3 7
3744 34 6
3745 2 9
3745 3 17
3745 34 42
3746 5 2
3747 3 1
3748 8 1
3749 24 1
3750 5 1
3751 10 1
3752 15 8
3752 16 5
3752 17 5
3753 17 1
3754 2 9
3754 3 14
3754 31 5
3754 34 23
3755 2 1
3756 15 1
3757 18 1
3758 5 1
3759 8 1
3759 24 18
3760 9 27
3760 10 38
3760 11 32
3761 2 2
3761 3 3
3761 24 3
3762 9 1
3763 3 1
3763 10 1
3763 24 16
3763 34 1
3764 18 1
3764 31 1
3764 34 1
3764 38 1
3765 31 1
3766 4 8
3766 5 14
3766 34 1
3766 38 21
3767 26 1
3768 34 1
3769 1 1
3769 2 17
3769 3 25
3769 34 40
3770 14 1
3771 24 1
3772 21 6
3772 22 1
3773 4 4
3773 5 28
3773 38 42
3774 5 1
3775 7 2
3775 8 1
3776 20 1
3777 20 1
3778 4 2
3778 5 3
3778 38 5
3779 1 1
3779 29 1
3780 1 1
3781 19 1
3782 4 6
3782 5 54
3782 38 33
3783 18 1
3784 18 10
3784 19 7
3784 20 7
3785 19 1
3786 11 1
3787 21 1
3787 26 1
3788 15 20
3788 16 8
3788 17 11
3788 34 1
3789 19 1
3790 2 1
3790 3 1
3790 20 1
3791 24 3
3792 7 14
3792 8 26
3793 20 1
3794 4 1
3795 29 1
3796 29 4
3797 4 1
3797 5 8
3797 26 2
3797 38 3
3798 9 1
3798 24 1
3798 38 1
3799 2 19
3799 3 28
3799 29 46
3799 30 5
3799 34 31
3800 5 1
3801 3 1
3802 24 2
3803 1 1
3803 2 6
3803 3 8
3803 29 3
3803 34 14
3804 29 17
3804 30 2
3804 34 1
3805 24 1
3805 29 4
3805 30 1
3805 34 1
3806 12 1
3806 18 9
3806 19 18
3806 20 2
3806 34 1
3807 24 9
3808 2 3
3808 3 12
3808 16 1
3808 19 1
3808 34 14
3809 34 1
3810 10 1
3811 38 1
3812 3 1
3813 2 2
3813 3 2
3813 34 1
3814 19 1
3815 7 1
3815 15 1
3815 34 1
3816 24 4
3817 21 1
3818 7 5
3818 8 4
3819 1 2
3819 2 15
3819 3 36
3819 34 43
3820 29 1
3821 3 1
3822 12 2
3823 3 3
3823 34 11
3824 24 1
3825 31 1
3826 3 1
3826 26 15
3827 2 1
3828 4 3
3828 5 14
3828 38 12
3829 4 1
3829 24 3
3830 21 1
3831 38 1
3832 9 3
3832 10 2
3832 11 5
3833 14 1
3833 22 1
3833 28 7
3833 34 1
3834 9 11
3834 10 18
3834 11 11
3834 12 4
3834 14 3
3835 21 1
3835 34 1
3836 10 1
3836 24 2
3837 24 4
3838 34 1
3839 16 8
3839 17 4
3840 7 1
3841 10 1
3841 31 1
3842 2 2
3842 3 3
3842 34 1
3843 3 1
3843 5 2
3844 29 1
3845 10 1
3845 18 1
3846 17 1
3846 38 1
3847 18 1
3847 34 1
3848 4 1
3850 21 1
3850 24 7
3851 16 1
3852 26 4
3852 38 1
3853 12 1
3854 34 1
3855 3 1
3855 24 1
3855 34 2
3855 38 1
3856 24 1
3857 29 5
3857 30 1
3858 17 1
3858 24 11
3859 28 1
3860 1 1
3860 2 6
3860 3 8
3860 34 13
3861 29 10
3861 30 1
3862 19 1
3863 34 1
3864 3 1
3865 19 1
3866 21 1
3867 9 10
3867 10 25
3867 11 16
3868 2 5
3868 3 7
3868 34 11
3869 19 1
3870 34 1
3871 14 1
3871 18 43
3871 19 36
3871 20 7
3872 19 1
3873 12 1
3873 31 6
3874 5 1
3874 20 1
3875 29 3
3876 34 1
3877 19 1
3878 21 2
3878 34 1
3879 5 1
3880 29 22
3880 30 4
3881 24 1
3882 5 1
3882 21 1
3882 38 1
3883 12 1
3883 15 1
3884 10 1
3885 18 1
3885 19 5
3885 20 2
3886 5 1
3886 15 25
3886 16 13
3886 17 22
3886 22 1
3887 2 5
3887 3 10
3887 34 12
3887 38 1
3888 38 1
3889 19 1
3890 5 1
3890 24 1
3890 29 1
3891 23 1
3892 7 1
3892 18 1
3893 29 4
3894 3 1
3894 5 1
3894 38 2
3895 29 8
3896 2 1
3897 21 15
3897 22 12
3898 12 1
3899 14 1
3900 9 1
3900 12 21
3900 14 11
3901 24 4
3902 28 1
3903 29 1
3903 30 1
3904 31 3
3905 7 1
3906 2 1
3907 34 1
3908 3 1
3909 16 1
3909 34 1
3910 8 1
3911 5 1
3911 15 3
3911 16 3
3911 17 7
3912 5 7
3912 38 1
3913 2 2
3913 3 1
3914 21 1
3915 3 6
3915 29 5
3915 30 1
3915 34 4
3916 26 1
3917 21 11
3917 22 7
3918 12 1
3919 4 1
3920 21 3
3921 15 1
3921 17 1
3922 14 1
3922 21 2
3923 24 1
3924 1 1
3924 2 5
3924 3 15
3924 10 1
3924 28 1
3924 34 16
3924 38 1
3925 24 1
3925 29 1
3925 38 1
3926 11 1
3927 5 1
3927 24 24
3928 3 1
3929 18 1
3930 15 4
3930 16 2
3930 17 3
3931 38 1
3932 3 1
3932 7 1
3933 24 21
3934 19 1
3935 5 1
3935 22 1
3936 24 4
3937 7 15
3937 8 32
3937 22 1
3938 29 6
3938 30 1
3939 23 1
3940 5 12
3940 7 1
3940 38 7
3941 24 4
3942 24 1
3943 34 1
3944 5 2
3944 18 1
3944 38 3
3945 3 1
3946 28 2
3947 5 1
3947 11 1
3947 24 2
3948 7 9
3948 8 18
3949 14 1
3950 5 1
3951 29 2
3952 38 1
3953 31 3
3953 34 1
3954 4 1
3954 5 6
3954 38 5
3955 28 1
3955 29 2
3956 22 1
3957 21 1
3958 18 2
3958 19 8
3958 20 3
3959 21 1
3960 7 2
3960 8 6
3960 34 1
3961 2 1
3962 2 1
3963 38 1
3964 5 1
3964 29 12
3965 29 5
3966 8 2
3966 19 2
3966 20 4
3967 2 1
3967 5 1
3967 10 1
3967 11 1
3967 24 3
3967 29 1
3967 38 1
3968 4 2
3968 5 7
3968 38 8
3969 4 1
3970 4 8
3970 5 34
3970 12 4
3970 13 1
3970 14 6
3970 24 1
3970 38 34
3971 34 1
3972 38 1
3973 21 3
3973 22 1
3974 18 35
3974 19 26
3974 20 14
3975 3 1
3976 24 1
3976 28 5
3977 3 1
3978 9 24
3978 10 52
3978 11 35
3979 16 5
3979 17 3
3979 19 1
3980 24 11
3980 34 1
3981 5 1
3982 24 19
3983 19 1
3984 2 1
3985 10 1
3986 28 5
3987 9 1
3988 24 1
3989 12 3
3989 14 1
3990 19 1
3990 29 9
3991 3 1
3992 21 2
3992 22 1
3993 5 1
3994 4 8
3994 5 33
3994 38 31
3995 2 1
3996 24 1
3997 22 1
3997 26 1
3997 31 1
3998 4 4
3998 5 7
3998 12 2
3998 14 7
3998 38 4
3999 5 1
4000 5 1
4001 18 1
4001 26 4
4002 10 3
4002 26 1
4003 31 1
4004 2 15
4004 3 26
4004 22 1
4004 34 41
4005 10 1
4006 3 1
4007 4 2
4007 5 3
4007 10 1
4007 14 1
4007 38 1
4008 24 1
4009 7 1
4009 38 1
4010 19 1
4011 34 1
4012 18 10
4012 19 12
4012 20 7
4013 38 1
4014 4 1
4015 34 1
4016 23 2
4016 24 15
4017 24 1
4018 4 4
4018 5 10
4018 29 1
4018 30 1
4018 38 15
4019 21 7
4019 22 3
4020 21 1
4021 24 2
4022 2 9
4022 3 18
4022 18 6
4022 19 6
4022 20 1
4022 34 26
4023 34 1
4024 38 1
4025 34 1
4026 24 6
4027 24 4
4028 12 7
4028 13 3
4028 14 8
4029 26 1
4030 2 1
4030 8 1
4031 7 3
4031 8 21
4031 29 1
4031 34 1
4032 38 1
4033 4 8
4033 5 33
4033 26 11
4033 38 52
4034 3 1
4035 18 1
4035 31 1
4036 24 1
4037 31 14
4037 34 1
4038 19 1
4039 21 1
4040 31 4
4041 2 1
4042 16 1
4042 23 1
4042 24 8
4042 26 1
4043 29 4
4043 30 1
4044 38 1
4045 31 1
4046 2 8
4046 3 15
4046 34 21
4046 38 1
4047 3 3
4047 4 1
4047 5 1
4047 9 1
4047 12 1
4047 13 1
4047 15 1
4047 18 1
4047 19 1
4047 34 2
4048 3 1
4048 5 6
4048 38 6
4049 21 15
4049 22 7
4050 2 3
4050 3 12
4050 28 2
4050 34 17
4051 28 1
4052 34 1
4053 18 7
4053 19 8
4053 20 3
4054 5 1
4055 22 1
4056 34 1
4057 18 9
4057 19 18
4057 20 6
4058 21 1
4059 19 1
4059 29 1
4059 34 1
4060 5 3
4060 38 5
4061 18 1
4061 20 1
4062 14 1
4062 24 6
4062 29 19
4062 30 2
4063 24 1
4063 34 1
4064 18 1
4064 29 13
4064 30 1
4064 38 1
4065 24 1
4066 2 1
4067 29 10
4068 29 1
4069 9 1
4070 8 1
4071 31 1
4072 23 1
4072 24 4
4073 1 1
4073 2 4
4073 3 1
4073 24 1
4073 34 16
4074 1 1
4074 2 11
4074 3 34
4074 24 7
4074 28 3
4074 34 38
4075 2 12
4075 3 15
4075 34 20
4076 31 1
4076 34 1
4077 1 2
4077 2 3
4077 3 11
4077 24 1
4077 34 10
4078 4 3
4078 5 19
4078 38 24
4079 3 1
4080 29 17
4080 30 2
4081 29 1
4082 12 1
4082 22 1
4083 31 1
4084 20 1
4085 18 1
4086 1 1
4086 2 12
4086 3 36
4086 34 33
4087 24 1
4088 3 1
4088 14 2
4089 21 9
4089 22 5
4090 34 1
4091 10 1
4092 29 1
4093 34 2
4094 24 1
4094 25 1
4094 26 6
4095 5 7
4095 21 7
4095 22 3
4095 38 9
4096 8 1
4096 22 1
4097 4 1
4098 3 1
4099 34 1
4100 5 1
4101 29 1
4102 24 4
4102 29 1
4103 10 1
4104 20 1
4104 21 1
4105 19 1
4105 21 2
4106 18 5
4106 19 4
4106 20 1
4107 34 1
4108 31 1
4109 3 6
4109 5 1
4109 24 7
4109 34 2
4110 28 2
4110 34 1
4111 38 1
4112 3 1
4112 34 1
4113 5 1
4114 2 5
4114 3 28
4114 28 1
4114 34 20
4115 21 1
4115 38 1
4116 21 1
4117 28 2
4118 7 1
4119 15 21
4119 16 27
4119 17 18
4120 34 1
4121 21 1
4122 29 6
4122 30 1
4123 9 1
4124 8 1
4124 9 1
4124 10 2
4125 24 2
4126 2 1
4127 12 1
4127 14 1
4128 21 6
4128 22 2
4129 26 1
4130 4 10
4130 5 62
4130 38 72
4131 2 2
4131 3 1
4131 26 1
4131 34 6
4132 24 49
4133 34 1
4134 4 4
4134 5 27
4134 38 23
4135 5 1
4135 24 10
4135 31 1
4136 24 3
4136 34 1
4137 31 10
4138 34 1
4139 1 1
4139 20 1
4139 24 1
4139 31 1
4140 5 3
4140 14 2
4140 38 1
4141 5 2
4141 38 6
4142 1 1
4142 2 30
4142 3 36
4142 34 51
4143 29 5
4144 26 1
4145 29 39
4146 20 1
4147 19 1
4148 12 1
4149 29 1
4150 16 1
4151 24 1
4152 28 1
4153 2 1
4153 3 1
4153 24 1
4153 26 5
4153 34 1
4154 1 1
4154 2 11
4154 3 16
4154 26 1
4154 34 28
4155 28 2
4155 29 9
4156 24 1
4157 10 1
4158 19 1
4158 24 1
4159 2 1
4160 5 1
4161 26 5
4162 18 4
4162 19 6
4162 20 2
4163 8 1
4164 34 1
4165 38 1
4166 4 8
4166 5 34
4166 38 35
4167 19 1
4167 24 3
4168 26 1
4169 9 4
4169 10 8
4169 11 5
4169 12 6
4169 14 8
4169 15 3
4169 16 1
4169 17 5
4170 12 1
4170 18 6
4170 19 7
4170 20 4
4170 21 1
4170 34 1
4171 5 1
4171 9 1
4172 18 24
4172 19 18
4172 20 1
4173 16 1
4173 26 13
4174 3 1
4175 10 1
4175 14 1
4176 4 3
4176 5 4
4176 38 13
4177 24 4
4178 5 1
4179 2 1
4180 4 1
4180 21 25
4180 22 18
4180 26 2
4180 29 12
4180 30 1
4180 31 3
4181 10 1
4182 18 3
4182 19 4
4182 20 1
4183 3 1
4183 9 6
4183 10 6
4183 11 3
4183 15 8
4183 16 4
4183 17 9
4184 26 1
4185 4 7
4185 5 43
4185 31 8
4185 38 37
4186 38 1
4187 34 1
4188 38 1
4189 31 4
4190 12 1
4191 34 1
4192 5 1
4193 34 1
4194 21 2
4195 34 1
4196 5 12
4196 38 6
4197 3 1
4198 16 1
4199 5 1
4199 14 1
4199 24 1
4199 31 1
4200 38 1
4201 14 1
4201 18 1
4201 19 1
4201 20 1
4201 29 1
4202 34 1
4203 3 1
4204 24 1
4205 8 1
4206 38 1
4207 4 1
4207 5 14
4207 12 1
4207 19 1
4207 38 17
4208 5 1
4208 38 1
4209 3 1
4209 24 8
4210 15 1
4211 11 1
4212 29 1
4213 4 10
4213 5 22
4213 28 7
4213 34 1
4213 38 19
4214 18 1
4214 19 1
4214 20 2
4215 3 1
4215 34 1
4216 29 17
4217 7 1
4217 8 1
4217 14 1
4217 24 1
4218 24 15
4219 21 1
4220 24 1
4221 2 1
4222 2 1
4222 3 1
4222 8 1
4222 18 3
4222 19 5
4222 28 1
4223 11 4
4224 2 1
4224 3 4
4224 34 5
4225 1 2
4225 2 29
4225 3 38
4225 34 45
4226 2 7
4226 3 2
4226 24 1
4226 26 1
4226 34 5
4226 38 1
4227 15 1
4227 31 1
4228 2 4
4228 34 4
4229 2 1
4230 5 1
4230 17 1
4230 19 1
4230 28 1
4230 29 1
4230 34 1
4231 22 1
4232 19 1
4233 10 1
4234 3 1
4235 28 4
4236 34 1
4237 18 19
4237 19 21
4237 20 18
4237 34 1
4238 3 1
4239 34 1
4240 12 8
4240 14 7
4241 9 7
4241 10 17
4241 11 7
4241 18 10
4241 19 16
4241 20 6
4242 34 1
4243 4 2
4243 5 15
4243 38 25
4244 15 1
4244 16 1
4244 17 2
4244 19 1
4244 22 2
4245 21 3
4245 22 3
4246 24 5
4247 31 1
4248 31 1
4249 24 1
4250 7 2
4250 8 3
4251 29 1
4252 29 1
4253 8 1
4253 12 5
4253 14 2
4254 9 6
4254 10 17
4254 11 14
4255 19 1
4256 5 2
4256 21 2
4256 38 1
4257 3 1
4257 10 1
4258 18 1
4258 34 1
4259 5 1
4260 34 1
4261 29 20
4262 2 1
4262 5 1
4262 24 1
4262 31 1
4262 38 1
4263 5 1
4263 26 1
4263 31 2
4263 33 1
4264 2 5
4264 3 6
4264 19 1
4264 21 1
4264 23 1
4264 24 10
4264 34 5
4265 38 1
4266 29 1
4267 28 2
4268 31 8
4268 38 1
4269 18 14
4269 19 12
4269 20 6
4270 24 1
4271 18 51
4271 19 44
4271 20 25
4272 24 1
4273 2 17
4273 3 36
4273 15 6
4273 16 4
4273 17 6
4273 34 40
4274 21 31
4274 22 19
4275 22 1
4276 7 1
4277 34 1
4278 34 1
4279 21 1
4280 7 2
4280 8 4
4281 18 1
4282 18 1
4283 5 1
4283 24 5
4284 21 1
4285 17 1
4285 18 3
4285 20 1
4286 12 2
4286 14 1
4287 21 25
4287 22 13
4288 12 1
4288 34 1
4289 2 1
4290 38 1
4291 2 1
4292 38 1
4293 31 18
4293 34 1
4294 2 1
4294 18 1
4295 29 4
4295 30 1
4296 2 1
4297 19 1
4297 21 1
4298 10 1
4299 7 1
4299 8 2
4300 4 8
4300 5 50
4300 38 50
4301 9 1
4302 31 1
4303 10 1
4303 34 1
4304 12 1
4305 12 1
4305 15 1
4305 16 1
4305 17 1
4306 7 2
4306 8 1
4307 4 1
4307 5 3
4307 21 2
4307 22 1
4307 38 8
4308 22 1
4308 29 19
4308 30 3
4309 2 1
4309 3 1
4309 24 4
4309 34 2
4310 8 1
4311 10 1
4312 9 1
4313 8 1
4313 14 1
4313 21 1
4313 22 1
4313 24 1
4313 31 1
4314 3 2
4314 17 1
4314 18 1
4314 28 1
4315 14 1
4315 21 1
4316 29 1
4317 12 11
4317 14 12
4318 28 9
4319 19 1
4320 22 1
4321 3 1
4322 18 1
4322 20 1
4323 2 1
4323 34 2
4324 24 1
4325 29 1
4326 34 1
4327 2 2
4327 3 1
4327 24 2
4327 34 3
4328 38 4
4329 18 1
4329 19 1
4330 8 1
4331 15 1
4331 17 2
4331 34 1
4332 12 1
4333 11 1
4334 12 1
4334 13 1
4334 18 8
4334 19 5
4334 20 5
4335 34 1
4336 3 4
4336 31 1
4336 34 1
4336 38 1
4337 20 1
4338 19 1
4339 12 1
4340 15 1
4340 20 1
4341 3 1
4341 21 3
4341 22 1
4342 28 1
4343 3 1
4344 3 2
4344 34 2
4345 5 1
4345 19 1
4345 22 1
4346 3 1
4346 29 14
4347 19 1
4348 21 1
4349 15 3
4349 22 1
4350 26 1
4351 12 18
4351 14 9
4351 24 1
4352 5 1
4352 9 1
4352 29 31
4352 30 2
4353 1 2
4353 2 2
4353 3 12
4353 19 1
4353 34 15
4354 19 1
4355 24 9
4356 9 1
4356 29 8
4357 24 1
4358 3 1
4359 3 1
4360 31 1
4361 34 1
4362 29 2
4363 24 4
4364 7 7
4364 8 8
4365 31 1
4366 38 1
4367 28 3
4368 18 1
4368 24 2
4369 24 1
4370 22 1
4371 3 1
4371 5 4
4371 38 3
4372 5 1
4373 9 1
4373 12 3
4373 21 7
4373 22 3
4374 4 2
4374 5 12
4374 38 13
4375 2 9
4375 3 22
4375 19 1
4375 34 13
4376 3 1
4377 29 2
4378 18 1
4378 24 1
4378 38 1
4379 17 1
4380 1 1
4380 2 13
4380 3 50
4380 34 69
4381 38 1
4382 14 1
4382 20 1
4383 24 4
4383 29 1
4384 38 1
4385 21 15
4385 22 15
4386 10 1
4387 2 20
4387 3 34
4387 19 1
4387 24 35
4387 34 47
4388 1 1
4388 21 1
4388 22 2
4389 5 1
4389 34 1
4389 38 2
4390 2 1
4391 38 1
4392 15 1
4392 24 1
4393 38 1
4394 3 1
4394 5 1
4394 29 18
4394 30 1
4395 34 1
4396 38 2
4397 15 3
4397 16 1
4397 17 3
4398 38 1
4399 34 1
4400 5 1
4400 18 1
4401 1 1
4401 34 1
4402 2 17
4402 3 13
4402 34 25
4403 2 1
4403 3 1
4403 8 1
4403 23 1
4403 26 1
4403 29 5
4403 30 1
4403 34 1
4403 38 1
4404 34 1
4405 24 1
4406 29 1
4407 19 1
4408 34 1
4409 3 1
4409 9 1
4409 24 1
4410 18 20
4410 19 30
4410 20 13
4411 4 1
4412 19 1
4413 34 1
4414 28 1
4415 38 1
4416 29 3
4417 2 3
4417 3 2
4417 24 1
4417 34 5
4418 18 1
4419 4 1
4419 5 1
4419 18 36
4419 19 33
4419 20 10
4419 24 1
4421 7 1
4422 31 1
4423 7 22
4423 8 23
4424 3 1
4425 38 2
4426 17 1
4427 3 1
4428 26 1
4429 9 1
4429 10 6
4429 11 6
4430 19 2
4430 20 1
4430 21 7
4430 22 4
4431 20 1
4432 2 2
4432 3 2
4432 19 1
4432 34 5
4433 8 2
4434 34 1
4435 16 1
4436 3 1
4436 5 1
4436 15 1
4436 17 2
4436 34 1
4437 2 2
4437 3 2
4437 4 1
4437 34 11
4438 19 1
4439 19 1
4439 20 1
4440 23 2
4440 24 14
4441 7 1
4442 3 1
4443 2 1
4444 38 1
4445 5 1
4446 29 5
4447 3 1
4447 14 1
4447 21 1
4448 29 1
4449 3 1
4449 19 1
4449 28 1
4449 29 1
4449 31 14
4449 34 1
4450 29 1
4451 24 1
4451 25 1
4451 29 1
4452 7 10
4452 8 25
4452 24 1
4453 8 1
4454 20 1
4455 3 1
4455 19 1
4455 21 12
4455 22 3
4456 5 1
4456 20 1
4456 28 2
4457 24 1
4457 28 5
4458 29 1
4459 26 1
4460 29 2
4461 5 1
4462 29 1
4463 17 1
4464 4 1
4464 5 13
4464 38 15
4465 2 12
4465 3 25
4465 34 25
4465 38 1
4466 18 1
4466 19 1
4466 20 1
4467 5 1
4468 22 1
4469 15 1
4469 16 1
4470 4 8
4470 5 38
4470 38 52
4471 31 4
4472 38 1
4473 10 1
4473 14 1
4474 38 1
4475 31 1
4476 2 1
4477 20 1
4478 7 1
4479 10 1
4479 21 8
4479 22 2
4479 24 1
4479 29 19
4479 30 2
4480 3 1
4481 1 1
4481 2 12
4481 3 22
4481 31 4
4481 34 32
4482 34 1
4483 15 1
4483 29 1
4484 24 1
4485 38 1
4486 1 1
4486 2 36
4486 3 107
4486 19 1
4486 34 125
4487 23 1
4488 2 1
4488 15 2
4488 24 7
4489 3 1
4490 3 1
4491 4 3
4491 5 13
4491 38 23
4492 2 1
4493 8 1
4494 34 1
4495 15 1
4496 3 3
4497 20 1
4498 29 2
4498 30 1
4499 38 1
4500 38 1
4501 34 1
4502 24 1
4502 29 2
4502 34 1
4503 3 1
4504 3 1
4505 10 1
4506 22 1
4507 15 1
4508 2 1
4508 8 1
4508 9 20
4508 10 41
4508 11 33
4508 21 1
4509 38 1
4510 3 1
4510 18 1
4511 3 1
4512 29 1
4512 34 1
4513 2 1
4514 4 4
4514 5 18
4514 19 1
4514 38 21
4515 28 1
4516 24 1
4517 3 1
4518 2 1
4519 21 1
4520 2 5
4520 3 5
4520 34 10
4521 12 1
4521 24 10
4522 18 1
4522 19 3
4522 20 1
4523 34 1
4524 29 1
4525 24 1
4526 30 1
4527 3 1
4528 22 1
4528 29 14
4528 30 1
4529 2 3
4529 3 4
4529 12 1
4529 14 3
4529 20 1
4529 26 4
4529 34 2
4530 21 1
4531 24 2
4532 2 1
4533 3 3
4534 31 4
4535 18 2
4535 19 2
4535 20 3
4536 7 1
4537 20 1
4538 18 10
4538 19 10
4538 20 5
4539 21 3
4539 22 4
4540 2 1
4540 24 1
4540 26 5
4540 29 4
4540 34 1
4541 19 1
4542 28 1
4543 4 1
4544 5 1
4545 18 1
4546 4 1
4547 5 1
4548 34 1
4549 28 2
4549 31 1
4550 7 1
4551 29 1
4551 34 1
4552 16 1
4552 17 1
4553 24 2
4554 12 3
4554 14 3
4555 24 12
4555 34 1
4556 9 1
4556 10 3
4556 11 1
4557 10 2
4558 28 5
4559 3 1
4559 5 6
4559 38 6
4560 22 1
4561 5 1
4562 18 12
4562 19 25
4562 20 7
4563 3 1
4563 28 1
4564 19 2
4565 34 2
4566 18 3
4566 20 1
4567 2 1
4567 12 1
4567 34 1
4568 18 1
4569 19 1
4569 31 2
4570 19 1
4571 4 1
4572 11 1
4572 18 1
4572 20 1
4573 12 20
4573 14 9
4574 4 4
4574 5 17
4574 38 24
4575 17 1
4576 34 2
4577 5 1
4577 26 7
4578 2 1
4578 34 1
4579 10 1
4580 5 1
4581 3 1
4581 9 1
4581 21 2
4581 22 2
4581 38 1
4582 18 5
4582 19 5
4582 20 3
4583 3 1
4583 21 24
4583 22 12
4584 3 1
4585 34 1
4586 8 1
4586 25 1
4586 26 4
4587 21 1
4588 24 1
4589 22 1
4590 24 1
4591 3 1
4592 19 1
4593 21 1
4594 29 2
4595 29 1
4596 24 1
4596 31 5
4596 34 1
4596 38 1
4597 29 1
4598 26 21
4599 1 1
4599 21 1
4600 5 1
4600 18 1
4600 24 1
4600 38 1
4601 9 1
4601 24 12
4602 12 1
4603 31 1
4604 4 7
4604 5 13
4604 38 24
4605 8 2
4605 15 2
4605 16 4
4606 38 1
4607 5 2
4607 11 1
4607 29 9
4608 21 2
4608 22 3
4609 31 3
4610 29 9
4611 12 1
4611 19 1
4612 38 1
4613 12 1
4613 19 1
4614 29 1
4615 24 2
4616 31 1
4617 29 1
4618 8 2
4618 34 1
4619 30 1
4620 9 3
4620 10 5
4620 11 2
4621 15 1
4621 16 1
4623 18 3
4623 19 5
4623 21 13
4623 22 13
4624 29 10
4624 30 1
4625 29 1
4626 20 1
4627 15 3
4628 38 1
4629 11 1
4629 21 1
4630 26 1
4630 29 1
4630 30 1
4630 31 3
4631 5 1
4632 24 1
4633 28 3
4634 2 3
4634 3 1
4634 34 4
4635 26 3
4636 7 6
4636 8 11
4637 31 1
4638 17 1
4638 31 2
4639 26 1
4640 2 1
4640 12 1
4640 14 2
4641 3 1
4642 38 1
4643 16 17
4643 17 15
4644 31 1
4645 2 8
4645 3 19
4645 5 1
4645 34 23
4646 2 1
4647 26 8
4648 38 3
4649 34 1
4650 12 1
4651 26 10
4652 24 1
4653 24 14
4654 3 1
4655 2 14
4655 3 26
4655 34 26
4656 2 1
4656 3 1
4656 34 1
4657 34 1
4658 19 2
4658 28 1
4659 5 1
4660 12 1
4661 10 1
4662 19 1
4663 5 1
4663 9 1
4663 34 1
4664 2 8
4664 3 16
4664 34 18
4665 8 1
4666 2 1
4666 34 1
4667 2 1
4668 1 1
4668 2 13
4668 3 18
4668 29 1
4668 34 33
4669 5 1
4670 29 1
4671 34 2
4671 38 1
4672 28 4
4673 7 1
4673 8 1
4674 28 1
4675 9 4
4675 10 12
4675 11 4
4676 19 1
4676 20 1
4677 2 1
4678 4 2
4678 5 7
4678 38 1
4679 4 1
4679 24 1
4680 34 1
4681 24 1
4681 28 1
4682 19 1
4683 3 1
4683 34 1
4684 29 1
4685 5 1
4686 12 1
4687 5 4
4687 38 2
4688 38 1
4689 30 1
4690 38 1
4691 24 1
4693 5 1
4694 5 1
4695 2 2
4695 3 13
4695 34 26
4696 38 1
4697 15 1
4698 20 1
4698 34 1
4699 4 2
4699 5 11
4699 34 1
4699 38 13
4700 26 3
4701 4 1
4702 18 2
4702 19 1
4703 2 2
4703 3 10
4703 24 1
4703 28 3
4703 34 9
4704 30 1
4705 4 1
4706 9 1
4707 34 1
4708 34 1
4709 26 1
4710 12 13
4710 14 12
4711 18 1
4712 24 1
4713 10 2
4713 11 1
4714 15 1
4715 26 2
4716 21 14
4716 22 10
4717 5 2
4717 38 1
4718 2 1
4719 3 1
4720 2 1
4721 3 1
4722 24 9
4723 24 1
4724 34 1
4725 18 1
4725 31 1
4726 2 1
4726 34 1
4727 2 1
4728 7 1
4728 8 2
4728 24 1
4729 3 1
4730 18 1
4730 24 3
4730 29 2
4730 30 2
4731 10 1
4732 34 1
4733 22 1
4733 31 9
4734 26 1
4735 31 1
4736 2 1
4737 31 1
4738 24 1
4739 14 2
4740 9 4
4740 10 5
4740 11 10
4740 29 1
4741 9 4
4741 11 2
4742 38 1
4743 10 1
4743 20 1
4743 24 1
4744 19 1
4745 29 1
4746 11 2
4746 24 2
4747 5 1
4747 24 1
4747 34 1
4748 14 1
4748 38 1
4749 2 1
4750 3 1
4750 19 1
4751 19 1
4752 24 33
4753 26 5
4754 3 1
4754 4 1
4754 5 2
4754 9 1
4754 29 1
4754 38 1
4755 34 1
4756 3 1
4756 31 20
4757 29 1
4758 24 1
4758 31 1
4759 19 2
4759 34 1
4759 38 1
4760 18 1
4760 19 1
4760 38 1
4761 4 9
4761 5 22
4761 38 48
4762 11 1
4762 29 25
4762 30 2
4763 12 6
4763 13 1
4763 14 2
4764 34 1
4765 34 1
4766 18 1
4766 29 1
4767 10 1
4767 19 1
4768 17 1
4769 12 1
4770 24 5
4771 4 11
4771 5 52
4771 38 68
4772 12 1
4772 21 4
4773 38 1
4774 3 2
4775 38 1
4776 24 2
4776 29 1
4777 3 1
4777 18 36
4777 19 41
4777 20 8
4778 2 1
4779 5 3
4779 34 1
4779 38 2
4780 19 1
4781 29 5
4782 23 1
4782 24 6
4783 9 1
4783 34 1
4784 9 2
4784 10 3
4784 11 1
4785 34 1
4786 24 1
4786 28 10
4787 10 1
4787 21 29
4787 22 11
4787 34 1
4788 29 1
4789 16 1
4790 5 1
4791 5 1
4792 4 3
4792 5 9
4792 8 1
4792 38 14
4793 3 2
4793 31 3
4794 2 1
4795 12 7
4795 14 1
4795 22 1
4795 31 1
4796 12 1
4797 24 1
4798 7 1
4799 21 1
4799 29 13
4799 30 4
4799 38 1
4800 29 3
4800 30 1
4801 1 1
4801 2 12
4801 3 10
4801 24 3
4801 28 1
4801 29 2
4801 34 6
4802 24 5
4803 22 1
4803 31 1
4804 4 3
4804 5 15
4804 38 14
4805 17 2
4806 1 1
4806 2 11
4806 3 13
4806 34 20
4807 22 1
4807 31 3
4808 8 1
4809 25 1
4809 26 7
4810 5 1
4810 17 1
4810 26 1
4811 3 1
4811 4 1
4811 24 21
4811 34 1
4812 2 1
4813 2 1
4813 3 1
4813 34 3
4814 9 7
4814 10 24
4814 11 7
4815 34 1
4816 21 16
4816 22 8
4816 38 1
4817 31 5
4818 31 1
4819 3 1
4820 31 6
4821 4 7
4821 5 41
4821 38 59
4822 3 1
4823 34 1
4824 2 2
4824 3 2
4824 26 1
4824 34 2
4825 24 7
4825 29 1
4825 38 1
4826 15 34
4826 16 23
4826 17 20
4827 31 2
4828 14 1
4828 23 1
4828 24 18
4829 14 1
4830 2 12
4830 3 28
4830 34 39
4831 5 1
4831 12 1
4831 26 1
4831 29 9
4831 30 2
4831 34 1
4832 8 2
4832 11 1
4832 38 2
4833 2 5
4833 3 14
4833 34 27
4834 2 1
4834 29 13
4834 30 1
4835 19 1
4835 21 3
4835 22 1
4836 15 1
4836 16 1
4837 2 1
4837 3 1
4837 34 1
4838 9 1
4838 10 3
4838 11 2
4838 14 1
4839 29 1
4840 7 1
4841 3 1
4842 29 11
4843 31 1
4844 34 1
4845 17 2
4846 4 4
4846 5 19
4846 22 1
4846 38 27
4847 38 1
4848 5 1
4849 24 1
4850 24 11
4851 2 6
4851 3 8
4851 34 14
4852 5 1
4852 26 3
4852 29 1
4853 31 1
4854 1 1
4854 2 4
4854 3 5
4854 29 4
4854 34 8
4855 25 2
4855 26 10
4856 12 1
4857 12 1
4858 28 2
4859 2 1
4860 19 1
4860 29 4
4861 2 2
4861 34 3
4862 38 1
4863 4 2
4863 5 33
4863 19 1
4863 38 35
4864 16 1
4865 38 1
4866 3 1
4867 24 1
4868 20 1
4869 31 1
4870 18 2
4870 19 3
4870 20 1
4871 24 1
4872 11 6
4872 18 3
4872 19 4
4872 20 2
4873 31 17
4874 26 1
4875 14 1
4876 24 1
4877 21 1
4877 26 3
4878 24 1
4878 34 1
4879 31 1
4880 5 1
4880 24 9
4881 21 1
4882 28 1
4883 2 1
4883 3 1
4884 38 1
4885 5 1
4885 28 1
4886 2 1
4886 18 6
4886 19 5
4886 20 1
4886 34 1
4887 8 1
4887 15 1
4888 4 1
4889 34 1
4890 5 1
4891 10 1
4891 12 12
4891 13 1
4891 14 15
4892 29 1
4892 38 1
4893 34 1
4894 2 1
4895 29 22
4895 30 1
4896 29 1
4896 38 1
4897 11 1
4898 24 3
4899 14 1
4900 21 1
4900 26 1
4900 29 2
4901 19 2
4902 2 1
4902 24 1
4902 34 1
4903 2 1
4904 2 8
4904 3 13
4904 18 1
4904 34 4
4905 2 1
4905 38 1
4906 29 16
4906 30 1
4907 5 1
4908 31 1
4908 38 1
4909 2 1
4910 38 1
4911 28 6
4912 3 1
4913 28 1
4914 34 1
4915 7 1
4915 8 6
4916 19 1
4917 34 1
4918 18 1
4918 28 1
4919 24 1
4920 5 1
4921 18 1
4922 24 1
4923 31 1
4923 38 1
4924 12 1
4925 34 1
4926 24 1
4926 25 1
4926 26 7
4927 10 2
4927 21 4
4927 22 1
4927 38 1
4928 18 1
4928 21 7
4928 22 2
4929 34 1
4930 9 1
4930 16 1
4930 31 1
4931 4 20
4931 5 50
4931 16 1
4931 38 67
4932 29 10
4932 34 1
4933 2 2
4933 12 27
4933 13 1
4933 14 16
4933 15 27
4933 16 27
4933 17 25
4933 31 1
4934 3 1
4935 9 1
4936 8 5
4937 34 1
4938 18 6
4938 19 5
4938 20 3
4939 2 12
4939 3 26
4939 34 33
4940 31 1
4941 19 1
4942 3 1
4943 22 1
4944 18 17
4944 19 26
4944 20 11
4945 29 19
4945 30 2
4946 28 1
4947 28 1
4948 4 1
4948 5 14
4948 38 11
4949 4 1
4950 21 1
4951 18 1
4952 24 1
4953 31 1
4953 34 1
4954 29 1
4954 31 1
4955 2 2
4955 3 6
4955 34 5
4956 3 1
4956 5 1
4957 3 1
4957 29 1
4957 31 5
4957 38 1
4958 8 1
4958 29 7
4958 30 1
4959 3 2
4960 19 1
4961 2 1
4962 9 2
4962 10 3
4962 11 2
4963 11 1
4964 38 1
4965 21 2
4965 22 1
4965 24 8
4966 11 1
4967 26 1
4968 15 3
4968 16 2
4968 17 2
4968 29 1
4969 29 3
4970 18 18
4970 19 18
4970 20 4
4971 38 1
4972 24 1
4973 3 1
4974 2 2
4974 4 1
4974 31 6
4975 10 1
4975 24 1
4976 29 4
4977 23 1
4977 24 1
4978 24 10
4979 2 1
4980 31 3
4981 18 1
4981 24 1
4982 5 1
4983 16 1
4983 21 1
4984 29 1
4985 22 1
4986 3 1
4987 29 1
4987 31 2
4988 29 7
4988 30 2
4989 3 1
4989 24 1
4990 3 1
4990 34 2
4991 10 1
4992 24 2
4993 3 1
4993 8 24
4993 28 1
4994 9 1
4994 12 1
4995 29 6
4995 30 1
4996 10 1
4997 18 1
4998 34 1
4999 18 1
4999 24 1
4999 29 6
4999 30 1
5000 15 1
5001 29 1
5002 12 1
5003 4 1
5003 31 1
5004 2 1
5005 15 1
5006 2 23
5006 3 53
5006 34 46
5007 21 1
5008 24 11
5009 8 1
5009 24 3
5010 24 1
5011 3 1
5011 26 5
5012 15 1
5013 14 1
5013 21 1
5013 22 1
5014 3 3
5014 21 1
5015 2 11
5015 3 29
5015 34 42
5016 4 1
5016 5 7
5016 38 6
5017 2 1
5017 18 3
5017 19 5
5017 20 1
5018 29 4
5019 31 1
5019 34 1
5020 10 3
5020 11 1
5020 18 1
5020 24 1
5021 21 1
5022 16 1
5022 19 1
5023 4 1
5023 5 3
5023 14 1
5023 18 1
5023 38 3
5024 5 1
5025 34 1
5026 24 1
5027 3 2
5027 5 1
5028 18 1
5028 24 1
5029 23 1
5029 24 11
5030 18 8
5030 19 9
5030 20 1
5031 12 1
5031 14 1
5031 24 15
5032 14 1
5033 7 11
5033 8 34
5034 12 10
5034 13 1
5034 14 9
5034 21 1
5035 3 1
5036 34 1
5037 31 4
5038 5 1
5039 3 1
5040 4 1
5040 29 1
5040 38 1
5041 8 1
5042 28 3
5042 29 19
5042 30 3
5042 38 1
5043 5 2
5043 21 41
5043 22 26
5043 38 1
5044 3 1
5044 18 5
5044 19 15
5044 20 3
5045 24 1
5046 29 1
5047 38 1
5048 26 1
5048 29 1
5049 9 17
5049 10 25
5049 11 22
5050 21 11
5050 22 5
5051 2 6
5051 3 6
5051 34 6
5052 29 1
5053 25 1
5053 26 17
5054 31 6
5055 29 1
5056 2 1
5056 18 1
5056 19 1
5057 9 14
5057 10 26
5057 11 9
5057 24 1
5058 4 4
5058 5 12
5058 28 1
5058 38 15
5059 3 1
5060 26 1
5061 18 1
5062 28 2
5063 26 3
5064 18 1
5064 19 1
5065 3 1
5066 31 9
5067 15 1
5068 3 1
5068 19 1
5068 28 1
5069 7 4
5069 8 20
5069 38 1
5070 28 4
5071 3 1
5072 21 11
5072 22 13
5073 21 19
5073 22 10
5074 24 4
5075 34 1
5076 10 1
5077 24 1
5078 22 1
5079 8 1
5079 21 6
5079 22 4
5079 29 1
5080 24 7
5080 38 1
5081 18 1
5082 3 3
5082 34 3
5083 8 1
5084 24 1
5085 18 1
5086 20 1
5087 9 14
5087 10 38
5087 11 17
5088 24 6
5089 24 5
5090 21 1
5091 34 1
5092 24 8
5093 5 1
5094 3 1
5094 19 1
5095 4 1
5095 5 1
5095 8 1
5095 24 46
5095 34 1
5096 3 1
5096 5 1
5097 10 1
5098 24 6
5098 30 1
5099 8 2
5100 30 1
5101 19 1
5101 24 4
5102 24 1
5103 2 1
5103 3 5
5103 7 3
5103 8 1
5103 34 3
5104 11 1
5105 38 1
5106 24 1
5107 18 8
5107 19 30
5107 20 9
5108 24 8
5109 24 1
5110 21 45
5110 22 37
5111 10 1
5112 2 3
5112 3 14
5112 34 16
5113 3 1
5114 3 1
5115 28 3
5116 19 1
5117 14 1
5118 29 1
5119 3 1
5119 8 1
5120 3 1
5121 2 8
5121 3 10
5121 8 1
5121 34 15
5122 4 2
5122 5 20
5122 38 18
5123 3 1
5123 23 1
5123 24 31
5124 23 1
5124 24 15
5125 19 2
5126 21 1
5126 38 1
5127 18 1
5128 2 2
5128 3 2
5128 34 2
5129 28 9
5130 5 1
5131 8 1
5132 3 1
5133 21 2
5133 22 1
5134 24 1
5135 4 3
5135 5 23
5135 38 35
5136 26 1
5137 7 1
5138 2 1
5138 18 1
5138 34 1
5139 24 1
5140 5 1
5140 14 1
5140 38 4
5141 24 18
5142 21 10
5142 22 2
5143 21 1
5144 24 9
5145 18 12
5145 19 13
5145 20 3
5146 3 1
5146 24 1
5147 29 1
5148 3 1
5149 10 1
5149 18 1
5150 29 2
5151 29 5
5152 18 1
5152 24 9
5153 11 1
5154 3 1
5154 16 1
5154 17 1
5155 14 1
5156 15 1
5156 16 1
5156 17 2
5157 18 1
5157 24 1
5158 2 2
5158 3 9
5158 5 1
5158 34 22
5159 34 1
5160 22 1
5161 24 1
5162 5 1
5163 5 1
5163 15 1
5163 22 1
5164 34 1
5165 10 1
5166 4 5
5166 5 11
5166 34 1
5166 38 19
5167 3 1
5167 4 2
5167 5 19
5167 31 1
5167 34 1
5167 38 22
5168 12 1
5168 19 1
5169 19 1
5170 2 2
5170 3 1
5170 34 1
5171 12 1
5171 18 2
5171 19 1
5171 20 1
5172 21 1
5172 28 6
5173 25 1
5173 26 3
5173 30 1
5174 21 8
5174 22 9
5175 3 2
5175 34 3
5176 24 1
5177 38 1
5178 9 9
5178 10 9
5178 11 9
5178 12 1
5178 14 1
5179 34 1
5179 38 1
5180 4 1
5180 28 6
5181 38 1
5182 19 1
5183 4 10
5183 5 47
5183 18 1
5183 38 51
5184 29 2
5185 2 2
5185 12 1
5186 2 1
5187 38 1
5188 18 1
5188 26 2
5188 29 3
5189 7 1
5189 34 1
5190 22 1
5191 3 1
5192 31 4
5193 10 1
5194 31 3
5194 33 1
5195 29 8
5195 30 1
5196 12 1
5197 12 1
5198 10 1
5199 1 2
5199 2 13
5199 3 37
5199 34 43
5200 5 1
5201 29 5
5201 30 1
5202 5 1
5202 25 1
5202 26 6
5203 2 1
5204 1 1
5204 11 1
5205 5 1
5205 19 1
5205 21 5
5205 22 6
5206 4 5
5206 5 34
5206 24 2
5206 34 1
5206 38 41
5207 18 1
5208 25 1
5208 26 4
5209 5 1
5209 31 1
5210 38 1
5211 19 1
5211 24 2
5212 7 1
5213 1 1
5213 2 11
5213 3 36
5213 34 38
5214 3 1
5214 28 1
5215 2 3
5215 3 7
5215 29 1
5215 34 19
5216 3 1
5216 34 1
5217 3 1
5218 22 1
5219 21 1
5219 22 1
5220 24 4
5221 34 1
5222 2 1
5222 3 2
5222 29 4
5222 34 1
5223 2 3
5223 3 11
5223 34 17
5224 18 10
5224 19 4
5225 2 1
5225 31 4
5226 1 1
5227 11 1
5227 12 13
5227 14 11
5228 23 1
5228 24 8
5229 28 5
5229 34 1
5230 5 1
5231 3 4
5231 21 1
5231 34 6
5232 29 2
5233 21 1
5234 21 8
5234 22 7
5235 3 5
5235 4 1
5235 5 5
5235 19 1
5235 34 5
5235 38 3
5236 4 1
5237 1 1
5237 2 1
5237 3 1
5237 29 15
5237 30 2
5237 34 6
5238 12 1
5239 31 1
5240 34 1
5241 7 2
5241 8 1
5242 14 1
5243 15 1
5244 26 1
5245 5 1
5246 12 8
5246 13 1
5246 14 3
5246 24 1
5247 14 1
5247 23 1
5248 14 1
5249 5 1
5250 18 9
5250 19 11
5250 20 1
5251 34 1
5252 18 1
5253 24 1
5254 21 1
5255 17 1
5255 18 56
5255 19 61
5255 20 32
5255 24 1
5255 29 6
5255 30 2
5255 38 2
5256 5 1
5256 31 9
5257 19 1
5258 18 19
5258 19 29
5258 20 13
5259 24 1
5260 28 3
5260 29 1
5261 4 2
5261 5 5
5261 38 9
5262 24 11
5262 29 10
5262 30 1
5263 3 1
5264 30 1
5264 31 2
5265 1 1
5265 2 8
5265 3 6
5265 24 1
5265 31 1
5265 34 15
5266 15 14
5266 16 8
5266 17 14
5267 18 1
5267 38 1
5268 19 1
5269 2 1
5269 29 1
5270 24 1
5271 3 1
5271 5 1
5271 18 13
5271 19 24
5271 20 7
5272 4 14
5272 5 58
5272 8 2
5272 38 77
5273 18 1
5274 2 2
5274 3 11
5274 26 7
5274 31 4
5274 34 11
5275 5 1
5275 23 1
5275 24 15
5276 38 1
5277 24 1
5277 29 1
5278 29 23
5278 30 1
5279 2 1
5279 38 1
5280 31 3
5281 3 1
5282 2 2
5282 3 6
5282 4 2
5282 5 13
5282 24 2
5282 34 10
5282 38 13
5283 3 1
5284 14 2
5285 10 2
5285 19 1
5286 15 1
5286 16 1
5287 18 1
5288 19 1
5289 4 1
5289 29 1
5289 31 1
5289 38 1
5290 4 1
5290 19 1
5290 24 12
5290 38 1
5291 3 1
5291 21 1
5291 24 2
5291 28 4
5291 29 1
5291 38 2
5292 28 1
5293 14 1
5293 38 1
5294 11 1
5295 3 1
5296 3 1
5297 7 2
5297 8 3
5298 18 1
5298 19 3
5299 21 1
5300 31 1
5300 38 1
5301 3 1
5302 38 1
5303 3 1
5303 19 1
5304 34 1
5305 3 1
5305 5 1
5305 10 1
5305 21 15
5305 22 7
5306 28 1
5307 2 1
5307 11 1
5308 2 1
5308 3 1
5308 28 1
5308 34 2
5309 3 1
5310 4 1
5310 5 5
5310 15 1
5310 38 9
5311 2 4
5311 3 15
5311 19 1
5311 34 13
5312 10 1
5312 18 2
5312 19 1
5312 20 2
5313 31 1
5314 31 1
5315 9 2
5316 28 1
5316 34 1
5317 3 2
5317 31 1
5318 24 1
5319 5 1
5319 21 2
5319 22 1
5319 29 1
5319 31 1
5320 18 1
5321 14 1
5321 26 2
5322 29 4
5323 21 10
5323 22 10
5324 1 1
5324 2 1
5324 3 43
5324 34 43
5325 29 1
5325 34 2
5326 10 1
5327 29 12
5327 30 2
5328 5 1
5328 26 1
5328 34 1
5329 2 7
5329 3 5
5329 34 12
5330 29 6
5331 11 1
5332 24 3
5333 25 1
5333 26 3
5333 29 2
5334 19 8
5335 3 1
5336 5 3
5336 38 2
5337 4 2
5337 5 4
5337 38 3
5338 2 1
5338 34 2
5339 31 7
5340 3 1
5340 24 3
5340 29 1
5341 29 1
5342 2 1
5342 9 1
5342 18 15
5342 19 22
5342 20 1
5342 22 1
5342 38 1
5343 19 1
5344 12 2
5344 14 1
5344 15 47
5344 34 2
5345 25 1
5345 26 1
5346 12 1
5347 31 1
5348 38 1
5349 17 1
5349 34 1
5350 38 1
5351 8 1
5352 7 2
5352 8 12
5352 15 1
5353 5 1
5353 8 1
5353 18 1
5354 3 1
5355 10 1
5356 23 1
5356 24 6
5357 34 1
5358 3 1
5359 34 1
5360 24 2
5361 10 1
5361 34 1
5362 3 1
5362 12 2
5362 13 1
5362 14 1
5363 2 3
5363 3 10
5363 7 1
5363 28 5
5363 34 15
5364 8 1
5365 1 4
5365 2 17
5365 3 24
5365 24 8
5365 31 3
5365 34 31
5366 2 1
5366 3 2
5366 26 1
5366 31 2
5366 34 9
5367 14 2
5368 3 1
5369 29 2
5369 34 1
5370 7 1
5370 8 6
5371 3 1
5371 28 1
5372 4 1
5372 5 2
5372 38 1
5373 5 1
5374 11 1
5374 38 2
5375 19 1
5376 15 1
5377 2 1
5377 9 15
5377 10 28
5377 11 11
5378 2 1
5378 24 16
5379 11 1
5380 13 1
5380 15 1
5381 4 1
5381 5 4
5381 19 1
5381 29 1
5381 38 3
5382 2 1
5382 34 1
5383 24 21
5383 31 1
5384 3 1
5385 22 1
5386 24 10
5386 29 1
5386 34 1
5387 19 1
5388 29 19
5389 34 1
5390 7 1
5390 22 1
5391 14 1
5391 29 5
5391 30 1
5392 2 8
5392 3 9
5392 5 1
5392 9 1
5392 29 3
5392 34 13
5393 18 8
5393 19 13
5393 20 2
5394 22 1
5395 21 1
5396 19 1
5397 24 5
5398 18 1
5399 18 1
5400 22 1
5400 24 9
5400 38 1
5401 19 1
5402 3 1
5402 18 1
5402 24 34
5402 34 1
5403 28 6
5403 38 1
5404 9 1
5404 18 24
5404 19 38
5404 20 8
5405 29 9
5406 2 7
5406 3 10
5406 5 1
5406 34 10
5407 18 2
5407 19 1
5408 7 3
5408 8 2
5409 30 1
5410 24 1
5411 26 12
5411 29 17
5411 30 2
5412 24 1
5413 2 5
5413 3 14
5413 23 1
5413 24 12
5413 29 1
5413 34 12
5414 12 1
5415 8 1
5416 34 1
5417 3 1
5418 19 1
5419 4 2
5419 5 7
5419 21 5
5419 38 6
5420 1 3
5420 2 13
5420 3 32
5420 16 1
5420 34 59
5421 18 1
5422 38 1
5423 17 1
5424 5 1
5425 31 1
5426 19 1
5427 31 1
5428 28 3
5429 15 7
5429 16 1
5429 17 6
5430 18 8
5430 19 18
5430 20 2
5430 24 1
5430 34 1
5431 18 1
5431 31 4
5432 2 4
5432 3 8
5432 34 11
5433 24 2
5434 38 1
5435 31 1
5436 10 1
5437 24 22
5438 12 1
5439 31 1
5440 8 1
5441 38 1
5442 28 3
5443 3 1
5444 4 2
5444 5 11
5444 18 1
5444 38 9
5445 12 20
5445 14 16
5446 19 1
5447 26 4
5448 2 1
5448 28 4
5449 19 1
5450 10 1
5451 15 1
5452 29 1
5453 3 1
5453 4 1
5453 10 3
5453 11 1
5453 21 2
5453 24 1
5453 29 2
5453 34 1
5453 38 1
5454 2 2
5454 22 1
5455 19 1
5456 1 1
5456 2 8
5456 3 20
5456 21 1
5456 34 16
5457 29 1
5457 30 1
5458 24 1
5459 31 1
5460 31 4
5461 4 2
5461 5 11
5461 34 1
5461 38 20
5462 21 1
5462 29 13
5463 11 1
5464 34 1
5465 29 1
5466 4 1
5467 1 1
5467 2 8
5467 3 18
5467 26 8
5467 34 25
5467 38 1
5468 12 1
5469 5 1
5470 18 1
5471 4 1
5471 5 1
5471 38 4
5472 17 1
5472 24 1
5473 34 1
5474 21 1
5474 29 1
5475 4 2
5475 5 9
5475 9 1
5475 38 9
5476 1 1
5476 2 7
5476 3 19
5476 34 22
5476 38 2
5477 34 1
5478 3 1
5479 9 1
5479 34 1
5480 17 1
5480 38 1
5481 34 1
5482 24 1
5483 29 1
5484 30 1
5485 34 1
5486 4 1
5487 3 1
5488 12 2
5488 14 2
5489 34 1
5490 24 4
5491 29 3
5492 5 1
5492 29 15
5493 26 1
5494 4 2
5494 5 7
5494 38 8
5495 1 1
5495 2 1
5495 3 5
5495 34 4
5496 38 1
5497 2 3
5497 3 4
5497 34 11
5498 3 1
5498 10 1
5498 12 1
5499 24 6
5500 21 1
5501 26 2
5502 5 1
5502 21 1
5503 38 1
5504 19 1
5505 24 1
5506 19 1
5506 28 1
5506 29 1
5507 2 1
5507 12 11
5507 14 6
5507 29 1
5508 21 1
5509 2 1
5510 34 1
5511 4 1
5511 5 11
5511 38 11
5512 2 1
5512 24 1
5513 18 11
5513 19 20
5513 20 5
5515 4 1
5515 21 2
5515 22 2
5516 7 1
5516 24 1
5516 29 1
5518 3 1
5519 10 1
5520 10 1
5520 11 1
5520 18 2
5520 19 2
5520 20 2
5520 22 1
5520 29 3
5521 38 1
5522 26 9
5523 26 2
5523 31 2
5524 24 7
5524 31 5
5525 15 1
5526 10 1
5527 18 1
5528 19 1
5528 38 1
5529 25 1
5529 31 5
5530 28 1
5531 24 1
5531 29 10
5532 29 10
5532 38 1
5533 4 8
5533 5 27
5533 19 1
5533 29 1
5533 38 39
5534 3 1
5534 12 7
5534 14 8
5535 34 1
5536 18 1
5537 28 5
5538 17 1
5538 18 1
5538 34 1
5539 7 1
5539 18 1
5540 2 1
5540 4 1
5540 7 1
5540 10 1
5540 12 1
5540 24 2
5540 29 1
5540 30 1
5540 34 1
5540 38 1
5541 20 1
5542 34 1
5543 3 1
5543 11 1
5543 29 2
5544 19 3
5544 26 1
5545 19 1
5546 29 17
5546 30 1
5547 4 1
5548 19 1
5548 25 1
5548 31 8
5549 5 1
5549 24 1
5549 38 1
5550 20 1
5550 38 1
5551 15 1
5551 16 1
5552 10 1
5552 11 1
5552 19 1
5553 2 1
5553 3 1
5553 34 1
5554 38 1
5555 1 1
5555 2 25
5555 3 52
5555 34 65
5556 29 1
5557 29 1
5558 28 7
5559 5 1
5559 29 10
5560 9 25
5560 10 37
5560 11 19
5561 19 1
5562 3 1
5562 9 1
5562 34 1
5563 21 19
5563 22 8
5564 7 1
5565 18 1
5565 22 1
5565 24 1
5566 19 1
5566 24 1
5567 22 1
5568 18 2
5568 19 1
5569 19 1
5569 38 1
5570 19 1
5571 5 1
5571 18 1
5571 38 1
5572 15 1
5573 4 1
5573 22 1
5573 34 1
5574 2 1
5575 38 6
5576 24 1
5577 16 12
5578 25 1
5578 26 10
5579 14 1
5579 26 1
5580 28 3
5581 24 1
5582 3 1
5583 2 1
5584 38 1
5585 31 3
5586 3 1
5587 5 1
5588 3 1
5588 7 9
5588 8 16
5588 14 1
5589 3 1
5590 3 1
5590 5 1
5590 16 1
5591 15 2
5592 25 1
5592 26 1
5593 21 1
5593 22 1
5594 28 4
5595 3 1
5596 29 17
5597 26 2
5598 34 1
5599 3 1
5599 18 10
5599 19 17
5599 20 9
5600 2 7
5600 3 14
5600 34 28
5601 29 15
5601 38 1
5602 22 1
5603 3 1
5604 24 9
5605 29 1
5606 38 1
5607 29 1
5608 14 1
5609 12 1
5609 29 7
5609 30 2
5609 38 1
5610 34 1
5611 2 1
5611 5 1
5612 38 1
5613 18 21
5613 19 38
5613 20 16
5613 21 26
5613 22 17
5613 24 1
5614 5 1
5614 25 1
5614 26 11
5615 31 1
5616 24 1
5617 31 1
5618 34 1
5619 4 1
5619 12 17
5619 14 4
5620 29 10
5620 30 1
5621 24 1
5622 15 1
5623 29 1
5624 1 1
5625 21 13
5625 22 6
5626 5 1
5627 11 1
5628 5 1
5628 24 1
5628 34 1
5629 22 1
5629 28 5
5630 28 1
5630 34 1
5631 34 1
5632 29 1
5633 5 1
5633 12 25
5633 13 2
5633 14 11
5634 24 3
5634 31 1
5635 16 1
5635 18 1
5635 21 1
5636 3 1
5636 11 1
5637 34 1
5638 3 1
5639 21 6
5639 22 3
5640 2 2
5640 24 4
5640 34 4
5641 12 1
5642 3 1
5642 24 6
5642 38 1
5643 14 1
5644 29 3
5645 26 7
5645 29 8
5645 30 1
5646 10 1
5646 19 1
5647 7 3
5647 8 2
5647 12 1
5648 29 1
5649 2 4
5649 3 9
5649 34 14
5650 12 1
5651 11 1
5651 21 1
5652 7 2
5652 8 3
5653 4 1
5654 18 1
5654 21 35
5654 22 30
5655 10 1
5656 31 2
5657 10 1
5657 18 3
5657 19 3
5657 20 2
5657 24 8
5658 19 1
5659 31 3
5660 29 7
5661 30 1
5662 29 1
5663 3 1
5664 26 2
5665 29 1
5666 21 1
5667 24 1
5668 17 1
5669 24 18
5670 31 2
5671 22 1
5671 34 1
5672 29 1
5673 29 1
5673 31 8
5674 29 8
5675 34 1
5676 3 1
5677 2 1
5678 23 2
5678 24 14
5679 28 1
5680 19 1
5681 4 1
5681 5 2
5681 38 3
5682 28 3
5683 12 1
5683 34 1
5684 29 21
5684 30 3
5685 29 1
5686 9 13
5686 10 25
5686 11 10
5687 2 2
5687 3 1
5687 34 2
5688 2 6
5688 3 5
5688 34 14
5689 18 1
5689 34 1
5690 10 1
5691 38 1
5692 4 1
5692 5 1
5692 34 1
5692 38 7
5693 5 1
5693 9 1
5694 31 3
5694 34 1
5695 29 1
5695 34 1
5696 18 1
5696 19 4
5696 20 3
5697 22 1
5697 24 1
5697 29 1
5698 22 1
5699 9 1
5699 10 3
5699 11 5
5700 2 1
5701 2 1
5701 24 19
5701 38 1
5702 24 1
5703 14 1
5704 31 1
5705 14 1
5706 2 2
5706 3 7
5706 29 3
5706 34 7
5707 19 1
5708 24 1
5709 3 1
5710 3 1
5710 29 1
5711 3 1
5711 10 1
5712 5 6
5712 38 10
5713 29 1
5714 5 1
5714 25 2
5714 26 26
5714 28 1
5714 29 4
5715 4 1
5715 5 8
5715 38 3
5716 15 14
5716 16 1
5716 17 6
5717 34 1
5717 38 1
5718 20 2
5719 31 1
5720 2 11
5720 3 16
5720 34 34
5721 1 1
5721 2 11
5721 3 19
5721 19 1
5721 34 28
5722 18 2
5722 19 2
5723 7 1
5724 31 1
5725 4 2
5725 5 10
5725 10 1
5725 38 12
5726 18 3
5726 19 5
5726 20 5
5727 20 1
5727 31 6
5728 14 1
5728 34 1
5729 22 2
5729 26 4
5730 4 1
5730 18 1
5730 24 1
5731 5 1
5732 38 1
5733 4 1
5734 38 1
5735 2 1
5735 4 1
5735 5 13
5735 19 1
5735 38 15
5736 16 1
5737 34 1
5738 34 1
5739 26 6
5739 31 5
5740 14 1
5741 29 1
5742 3 1
5743 4 12
5743 5 20
5743 34 1
5743 38 17
5744 28 5
5745 12 7
5745 14 1
5746 1 2
5746 2 20
5746 3 47
5746 19 1
5746 34 64
5747 3 1
5748 5 1
5749 24 5
5750 29 1
5750 34 1
5751 2 1
5751 3 1
5751 38 3
5752 15 1
5753 18 1
5754 26 19
5755 24 3
5755 34 1
5756 26 1
5757 5 1
5758 2 1
5759 3 1
5759 34 1
5760 8 1
5760 14 1
5760 23 1
5760 24 34
5760 26 2
5760 31 7
5761 11 1
5762 14 1
5763 34 1
5764 24 1
5764 34 1
5765 38 1
5766 2 1
5766 34 1
5767 4 1
5768 24 1
5769 19 1
5769 21 1
5770 21 1
5770 34 1
5771 5 1
5772 7 1
5772 38 1
5773 2 1
5773 3 1
5773 34 3
5774 2 1
5775 3 1
5776 4 1
5776 8 1
5777 34 1
5778 2 9
5778 3 26
5778 34 53
5779 2 4
5779 3 2
5779 26 4
5779 34 7
5780 18 1
5781 12 1
5781 28 1
5782 24 1
5783 12 1
5784 38 1
5785 31 1
5786 3 1
5787 26 1
5788 24 3
5789 28 1
5790 34 2
5791 15 11
5791 16 15
5791 17 9
5792 12 16
5792 14 2
5793 4 1
5793 18 1
5793 34 1
5794 19 1
5795 29 1
5796 24 1
5797 3 1
5798 19 1
5799 28 6
5800 22 2
5801 1 1
5801 2 4
5801 3 5
5801 34 9
5802 7 7
5802 8 12
5802 34 1
5803 15 2
5803 16 3
5803 17 4
5804 21 1
5805 12 1
5806 9 1
5806 10 2
5806 11 1
5807 19 1
5808 22 1
5809 24 1
5810 7 1
5810 15 2
5810 17 1
5811 24 1
5812 31 1
5812 34 1
5813 38 1
5814 2 9
5814 3 20
5814 34 15
5815 3 1
5815 4 5
5815 5 18
5815 38 33
5816 24 5
5817 18 40
5817 19 31
5817 20 15
5818 9 1
5819 12 10
5819 14 10
5820 7 1
5821 5 2
5822 24 1
5823 12 8
5823 14 9
5824 22 2
5825 31 1
5826 5 1
5827 4 7
5827 5 28
5827 38 28
5828 10 2
5828 11 2
5829 2 1
5830 24 11
5831 15 1
5832 10 1
5833 19 1
5834 1 1
5834 2 3
5834 3 1
5834 34 1
5835 4 4
5835 5 10
5835 38 23
5836 38 1
5837 1 1
5837 2 22
5837 3 30
5837 34 38
5838 14 1
5839 20 1
5840 4 5
5840 5 30
5840 38 29
5841 22 1
5841 26 1
5842 2 7
5842 3 4
5842 24 1
5842 34 12
5843 7 7
5843 8 7
5844 29 1
5845 9 1
5846 2 7
5846 3 9
5846 14 2
5846 19 1
5846 34 10
5847 20 1
5848 29 1
5848 30 2
5849 5 1
5849 15 1
5849 16 1
5849 17 1
5849 24 1
5849 38 1
5850 31 5
5851 18 1
5851 24 1
5852 21 14
5852 22 18
5852 34 1
5852 38 1
5853 31 10
5854 3 1
5855 1 1
5855 2 17
5855 3 36
5855 34 40
5856 34 1
5857 29 1
5857 34 1
5857 38 1
5858 15 2
5859 24 6
5860 3 1
5860 24 1
5860 28 8
5860 31 1
5861 28 1
5862 24 1
5863 22 1
5864 28 1
5865 38 1
5866 21 1
5867 28 1
5868 19 1
5869 18 15
5869 19 12
5869 20 4
5870 3 1
5871 10 1
5872 34 1
5873 2 1
5874 3 1
5875 14 1
5876 19 1
5877 18 39
5877 19 42
5877 20 18
5878 3 1
5878 7 1
5878 15 1
5878 16 3
5878 17 1
5879 24 9
5880 18 1
5881 18 1
5882 2 1
5882 29 2
5883 18 2
5883 20 1
5884 18 1
5885 7 1
5885 8 2
5885 21 1
5886 10 1
5887 4 1
5887 7 1
5887 8 2
5887 10 1
5887 18 2
5887 20 1
5888 31 1
5889 18 1
5890 12 77
5890 13 1
5890 14 39
5890 31 1
5891 38 2
5892 4 1
5892 5 9
5892 19 1
5892 38 10
5893 5 1
5893 38 1
5894 5 1
5894 21 8
5894 22 6
5894 38 2
5895 25 1
5895 26 1
5896 2 1
5896 26 22
5897 18 2
5897 19 14
5897 20 4
5898 3 1
5899 34 1
5900 19 1
5901 12 1
5901 18 13
5901 19 18
5901 20 5
5902 19 1
5903 2 1
5904 5 1
5905 2 1
5905 28 1
5905 29 2
5905 34 1
5906 21 1
5906 29 16
5907 24 16
5908 7 1
5909 10 1
5909 24 1
5910 1 1
5910 2 3
5910 3 8
5910 34 34
5911 34 1
5912 9 8
5912 10 12
5912 11 5
5913 11 1
5914 5 1
5914 31 6
5915 14 1
5915 29 1
5916 11 1
5917 3 1
5918 31 1
5918 38 1
5919 11 1
5919 20 1
5919 22 1
5919 24 7
5919 38 1
5920 2 1
5921 7 2
5921 8 2
5921 19 1
5921 24 1
5922 2 2
5922 3 1
5922 20 1
5922 34 8
5923 34 1
5924 7 1
5924 18 1
5924 19 2
5925 28 6
5925 34 1
5926 3 1
5927 5 1
5928 5 1
5929 14 1
5930 10 1
5931 4 4
5931 5 13
5931 38 19
5932 3 1
5933 10 3
5933 11 1
5933 12 1
5934 19 1
5935 31 1
5936 14 1
5937 18 1
5938 15 1
5938 31 4
5939 28 6
5940 19 1
5941 10 1
5942 34 1
5942 38 4
5943 5 1
5943 9 1
5943 20 1
5943 22 1
5943 34 1
5944 31 25
5944 34 1
5945 5 1
5945 12 3
5945 14 2
5946 24 13
5947 31 1
5948 34 1
5949 24 8
5950 28 1
5951 31 29
5952 34 1
5953 21 1
5954 19 1
5955 24 10
5956 12 27
5956 13 1
5956 14 15
5957 21 24
5957 22 19
5957 34 1
5958 18 21
5958 19 14
5958 20 11
5959 2 15
5959 3 12
5959 34 25
5960 2 2
5960 3 11
5960 5 1
5960 34 20
5961 24 1
5962 4 6
5962 5 11
5962 38 15
5963 12 1
5963 14 2
5964 29 1
5965 21 1
5966 5 13
5966 38 9
5967 24 3
5968 22 1
5969 21 1
5970 15 1
5971 31 7
5972 5 1
5972 24 20
5973 12 1
5973 14 1
5974 24 1
5975 2 13
5975 3 19
5975 34 22
5976 34 1
5977 24 1
5978 34 1
5979 3 1
5979 24 1
5979 34 1
5980 24 3
5981 4 1
5981 5 1
5982 2 1
5982 18 1
5982 34 1
5983 5 1
5983 20 1
5983 29 13
5983 30 2
5984 3 2
5985 9 1
5986 24 1
5987 14 1
5988 12 7
5988 14 6
5989 5 1
5989 26 4
5989 34 1
5990 21 1
5991 2 2
5991 3 2
5991 34 4
5992 15 5
5992 16 3
5992 17 2
5993 21 6
5993 22 1
5993 34 1
5994 8 1
5994 20 1
5995 2 17
5995 3 42
5995 5 1
5995 18 1
5995 34 57
5996 7 2
5996 8 6
5996 22 1
5997 34 1
5998 34 1
5999 10 1
6000 12 10
6000 13 1
6000 14 3
6001 3 1
6001 28 2
6002 3 1
6003 38 1
6004 25 2
6004 26 3
6004 38 1
6005 2 1
6005 3 1
6005 29 3
6006 11 1
6007 2 1
6007 5 1
6007 26 2
6008 5 1
6008 38 1
6010 29 1
6011 22 1
6012 21 27
6012 22 15
6013 34 1
6014 2 2
6014 3 4
6015 5 1
6015 24 17
6016 21 1
6017 28 2
6018 31 4
6019 2 1
6019 18 1
6020 38 1
6021 2 1
6022 34 1
6023 5 1
6024 4 8
6024 5 30
6024 10 1
6024 38 18
6025 21 19
6025 22 8
6026 15 1
6027 3 1
6028 3 1
6028 12 1
6028 18 1
6028 24 5
6029 3 1
6029 12 2
6029 14 1
6030 3 1
6031 3 1
6032 38 1
6033 15 1
6033 21 22
6033 22 24
6034 5 1
6034 29 1
6035 2 1
6035 7 3
6035 8 1
6036 21 10
6036 22 5
6037 3 1
6038 26 7
6039 29 16
6040 18 5
6040 19 3
6040 20 4
6041 31 1
6042 2 1
6043 2 16
6043 3 21
6043 34 34
6044 5 1
6044 8 1
6044 31 3
6045 8 3
6046 3 1
6046 21 5
6046 22 3
6047 2 1
6047 3 1
6047 29 1
6047 34 1
6048 26 4
6048 29 1
6049 23 2
6049 24 28
6050 21 1
6051 5 1
6051 29 1
6052 12 25
6052 14 11
6053 10 1
6054 34 1
6055 25 1
6055 26 5
6056 24 1
6056 29 1
6057 12 3
6057 29 1
6058 28 1
6059 2 6
6059 3 7
6059 34 7
6060 29 1
6061 5 1
6062 29 1
6062 38 1
6063 23 1
6063 24 3
6064 11 1
6065 38 1
6066 2 4
6066 3 5
6066 34 5
6067 3 1
6068 3 1
6069 28 1
6070 28 6
6071 8 1
6071 21 1
6071 25 3
6071 26 19
6072 5 5
6072 34 1
6072 38 4
6073 4 1
6073 5 5
6073 38 3
6074 4 1
6074 24 1
6075 28 1
6075 29 1
6075 38 1
6076 19 1
6077 29 1
6078 29 1
6079 14 1
6080 21 7
6080 22 2
6081 24 1
6082 26 1
6083 24 15
6084 7 1
6085 5 1
6085 21 1
6086 19 1
6086 21 5
6086 22 5
6087 38 1
6088 4 10
6088 5 59
6088 38 52
6089 10 1
6089 28 10
6090 10 1
6090 29 20
6090 30 1
6091 10 1
6091 24 3
6092 2 1
6092 38 1
6093 9 2
6093 10 4
6093 11 1
6094 3 1
6094 34 1
6094 38 1
6095 15 3
6095 16 4
6095 17 1
6096 29 1
6097 26 1
6098 19 1
6098 26 1
6098 38 1
6099 29 3
6100 26 1
6100 31 2
6101 22 1
6102 19 1
6103 1 1
6103 2 14
6103 3 11
6103 34 18
6104 29 2
6104 31 1
6105 16 1
6106 20 1
6106 28 8
6107 10 1
6107 12 1
6107 21 4
6107 22 2
6108 34 1
6109 10 1
6109 11 1
6110 4 11
6110 5 43
6110 21 1
6110 38 61
6111 9 10
6111 10 19
6111 11 3
6111 22 1
6112 8 1
6113 31 13
6114 21 22
6114 22 12
6115 15 8
6115 16 5
6115 17 10
6115 18 1
6115 19 2
6116 34 1
6117 20 1
6118 12 4
6118 14 3
6119 31 1
6120 12 2
6120 38 1
6121 10 1
6122 2 1
6123 21 1
6124 2 9
6124 3 19
6124 34 29
6125 2 1
6125 19 1
6125 26 1
6125 38 1
6126 10 1
6127 2 3
6127 3 2
6127 24 1
6127 34 5
6128 22 1
6128 24 1
6128 29 3
6129 10 1
6130 21 2
6131 14 1
6132 34 1
6133 29 5
6133 30 1
6133 31 1
6134 4 4
6134 5 6
6134 7 1
6134 24 2
6134 34 1
6134 38 9
6135 21 2
6135 38 1
6136 34 1
6137 24 1
6138 4 1
6138 5 3
6138 28 2
6138 38 2
6139 38 1
6140 34 1
6141 3 1
6141 21 1
6142 38 1
6143 12 2
6143 14 1
6144 34 1
6145 25 2
6145 26 9
6145 38 1
6146 19 1
6146 24 2
6146 38 1
6147 10 1
6148 21 1
6149 15 1
6150 38 1
6151 2 4
6151 3 6
6151 26 4
6151 29 4
6151 31 1
6151 34 2
6152 31 3
6153 14 1
6154 26 1
6155 25 1
6156 34 1
6157 9 1
6158 24 3
6158 29 7
6159 3 1
6160 28 1
6161 29 19
6161 30 1
6162 19 1
6163 2 5
6163 3 10
6163 24 1
6163 34 9
6164 38 1
6165 18 1
6166 38 1
6167 19 1
6168 24 2
6169 3 1
6169 31 1
6170 2 1
6170 24 2
6170 34 2
6171 2 1
6172 17 1
6173 7 3
6173 8 5
6173 24 1
6174 3 1
6175 15 18
6175 16 9
6175 17 5
6175 28 1
6176 29 1
6177 24 2
6178 34 1
6179 28 3
6180 3 2
6180 21 1
6181 10 5
6181 11 3
6182 12 1
6183 22 1
6184 3 1
6185 19 1
6186 28 1
6187 19 2
6187 25 1
6187 26 9
6188 18 13
6188 19 20
6188 20 3
6189 1 1
6189 2 7
6189 3 11
6189 34 15
6190 2 1
6190 5 1
6191 4 1
6191 5 3
6191 38 6
6192 21 1
6193 31 5
6194 19 1
6195 5 1
6196 9 5
6196 10 8
6196 11 3
6196 14 1
6197 21 7
6197 22 7
6198 21 1
6198 31 1
6199 20 1
6200 30 1
6200 31 9
6201 2 1
6202 3 1
6203 9 13
6203 10 19
6203 11 11
6204 3 1
6205 34 1
6206 10 1
6207 15 1
6207 18 35
6207 19 31
6207 20 19
6208 2 17
6208 3 34
6208 34 44
6209 2 1
6209 18 2
6209 19 9
6209 20 2
6210 28 1
6210 31 1
6211 9 2
6211 10 1
6211 11 2
6211 18 1
6211 19 3
6211 21 14
6211 22 15
6212 17 1
6213 4 2
6213 5 11
6213 28 1
6213 38 10
6214 18 1
6215 3 2
6215 18 1
6215 24 1
6216 31 4
6217 11 1
6218 4 1
6218 5 9
6218 38 4
6219 31 2
6220 29 20
6220 30 1
6221 38 1
6222 7 2
6222 8 1
6223 5 1
6224 9 1
6225 5 1
6226 18 5
6226 19 3
6226 20 1
6226 24 1
6227 2 16
6227 3 36
6227 34 45
6228 16 1
6228 34 1
6229 3 1
6229 5 1
6229 28 1
6229 31 1
6230 21 1
6231 10 1
6231 15 2
6231 19 1
6232 5 1
6232 38 1
6233 28 1
6234 5 1
6234 24 25
6234 38 1
6235 3 2
6235 9 1
6235 21 1
6235 22 1
6235 24 18
6236 2 3
6236 3 5
6236 34 4
6237 22 1
6238 24 1
6239 10 1
6240 12 1
6241 29 1
6242 25 1
6243 24 23
6244 25 1
6244 26 21
6244 29 29
6244 30 1
6245 21 1
6246 2 7
6246 3 12
6246 34 16
6247 31 8
6248 15 1
6249 12 1
6250 28 1
6251 24 17
6251 29 16
6251 30 1
6252 21 1
6253 9 1
6253 12 1
6254 29 1
6255 12 2
6255 14 5
6255 24 2
6256 18 57
6256 19 65
6256 20 10
6257 12 1
6258 26 1
6258 31 2
6258 34 1
6259 18 14
6259 19 11
6259 20 5
6260 10 1
6260 15 1
6260 28 6
6260 29 1
6261 5 1
6262 18 1
6262 31 2
6263 19 1
6264 3 1
6264 34 1
6265 4 2
6265 5 6
6265 38 9
6266 2 1
6266 12 1
6267 18 1
6267 19 4
6268 24 1
6269 26 2
6271 15 1
6271 17 1
6272 19 1
6273 28 1
6274 29 1
6275 15 2
6275 16 4
6275 17 1
6275 18 1
6276 5 1
6276 10 1
6276 28 1
6277 4 8
6277 5 44
6277 38 58
6278 34 1
6279 12 1
6280 5 1
6281 5 1
6281 18 1
6281 19 1
6281 20 1
6281 29 1
6281 34 1
6282 5 3
6282 38 4
6283 29 1
6284 3 1
6285 38 1
6286 1 2
6286 2 9
6286 3 11
6286 24 1
6286 31 3
6286 34 17
6287 31 7
6287 34 1
6288 9 2
6288 10 3
6288 11 3
6288 21 2
6288 22 1
6288 23 2
6288 24 22
6288 29 1
6289 38 1
6290 5 1
6290 22 1
6290 24 13
6291 28 6
6292 23 1
6292 24 13
6293 34 1
6294 29 1
6295 24 1
6296 31 3
6297 12 1
6297 14 2
6298 12 6
6298 14 3
6298 21 7
6298 22 5
6299 22 1
6300 3 1
6300 12 1
6300 34 3
6301 29 1
6302 38 1
6303 7 1
6303 8 1
6304 19 1
6305 19 1
6305 24 1
6306 20 1
6307 4 1
6308 29 1
6308 38 1
6309 19 1
6310 11 1
6311 20 1
6312 2 4
6312 3 13
6312 34 5
6313 31 19
6314 29 1
6315 12 1
6315 28 1
6315 29 6
6316 18 1
6317 18 1
6317 31 3
6318 28 10
6319 12 1
6320 15 1
6321 29 3
6321 30 1
6321 34 1
6322 28 1
6323 19 1
6324 31 1
6325 34 1
6326 26 4
6327 38 1
6328 2 6
6328 3 13
6328 34 13
6329 2 1
6329 38 1
6330 24 18
6331 3 1
6332 4 1
6332 28 1
6333 2 6
6333 3 17
6333 34 18
6334 31 1
6335 2 1
6335 18 1
6335 19 2
6336 5 1
6336 7 1
6337 24 2
6338 9 7
6338 10 20
6338 11 10
6339 38 1
6340 22 1
6341 5 1
6341 24 7
6341 34 1
6342 18 1
6343 3 1
6344 5 1
6345 3 1
6346 5 1
6347 19 1
6348 18 4
6348 19 9
6348 20 3
6349 24 4
6350 14 1
6350 29 22
6351 1 1
6351 9 1
6351 11 2
6352 23 1
6352 29 1
6353 8 1
6353 14 1
6353 28 1
6353 29 1
6353 34 2
6354 34 1
6355 2 1
6355 3 1
6355 5 1
6355 34 1
6356 31 1
6357 25 1
6357 26 3
6357 29 3
6357 30 1
6358 2 11
6358 3 20
6358 34 24
6359 2 8
6359 3 22
6359 34 36
6360 38 1
6361 14 1
6361 24 1
6361 31 1
6362 12 1
6363 3 1
6363 4 8
6363 5 29
6363 10 4
6363 29 1
6363 38 28
6364 4 2
6364 5 4
6364 38 6
6365 34 1
6366 28 8
6367 3 1
6367 34 4
6368 19 1
6368 29 9
6368 30 1
6369 24 1
6369 34 1
6370 5 1
6370 19 1
6370 24 18
6370 26 1
6371 22 1
6372 29 1
6373 3 1
6374 17 2
6374 19 1
6375 1 1
6375 2 2
6375 3 7
6375 34 5
6376 4 1
6377 19 1
6378 28 8
6379 38 1
6380 18 1
6381 14 1
6382 18 1
6383 24 1
6384 2 1
6385 3 1
6386 19 1
6387 2 5
6387 3 9
6387 34 19
6387 38 1
6388 18 1
6388 27 2
6388 28 11
6389 29 2
6389 30 1
6390 28 1
6391 3 1
6392 11 1
6392 29 1
6393 3 1
6394 18 1
6395 29 1
6396 5 1
6397 3 1
6397 5 1
6398 2 2
6398 3 3
6399 9 5
6399 10 7
6399 11 2
6399 24 1
6400 28 4
6400 34 1
6401 24 1
6402 7 1
6402 28 1
6403 5 1
6404 3 1
6404 5 1
6404 15 1
6404 28 2
6404 38 1
6405 2 1
6406 4 5
6406 5 22
6406 38 33
6407 34 1
6408 28 6
6408 31 1
6409 16 1
6409 17 2
6409 38 1
6410 15 4
6410 16 2
6410 17 6
6410 38 1
6411 24 7
6412 21 1
6413 17 1
6414 2 12
6414 3 18
6414 12 1
6414 34 31
6415 16 1
6416 29 1
6417 9 3
6417 10 2
6417 11 1
6418 19 1
6418 20 1
6419 24 1
6420 9 1
6421 31 1
6422 18 1
6423 9 9
6423 10 30
6423 11 19
6424 12 1
6424 14 1
6424 38 1
6425 3 1
6425 31 2
6425 34 1
6426 18 7
6426 19 8
6426 20 1
6427 14 1
6427 17 1
6428 24 1
6429 4 14
6429 5 84
6429 19 1
6429 22 1
6429 38 92
6430 5 1
6431 2 3
6431 3 6
6431 31 1
6431 34 5
6432 3 1
6433 15 1
6433 16 1
6434 5 1
6435 5 1
6436 18 1
6436 38 1
6437 19 1
6438 2 1
6439 5 1
6439 29 2
6439 34 2
6439 38 1
6440 3 1
6440 8 1
6440 34 1
6441 29 10
6441 30 1
6442 5 1
6443 3 1
6444 18 55
6444 19 53
6444 20 6
6445 38 1
6446 19 2
6446 20 1
6446 34 1
6446 38 1
6447 29 1
6448 29 3
6448 30 1
6449 2 1
6449 9 8
6449 10 15
6449 11 13
6449 16 1
6450 18 1
6450 24 1
6450 34 1
6451 3 1
6452 18 13
6452 19 17
6452 20 8
6452 21 6
6452 22 7
6453 21 1
6454 22 1
6454 25 2
6454 26 3
6455 29 3
6455 30 2
6455 31 1
6456 19 1
6457 20 1
6458 20 1
6459 18 1
6460 5 1
6460 16 1
6461 7 15
6461 8 23
6462 29 1
6463 31 11
6464 2 1
6465 2 1
6465 5 13
6465 38 10
6466 26 1
6467 4 4
6467 5 17
6467 38 26
6468 18 1
6469 21 1
6470 11 1
6470 34 1
6471 21 1
6472 1 2
6472 2 12
6472 3 24
6472 34 29
6473 2 1
6473 29 1
6474 4 1
6474 5 3
6474 8 1
6474 21 1
6474 38 4
6475 34 1
6476 2 1
6477 4 15
6477 5 40
6477 38 49
6478 3 1
6479 18 1
6479 24 1
6480 38 1
6481 29 1
6482 3 1
6483 3 1
6483 10 1
6483 18 9
6483 19 13
6483 20 7
6484 25 1
6484 26 12
6484 38 1
6485 1 1
6485 2 18
6485 3 10
6485 29 2
6485 30 1
6485 34 19
6486 8 1
6486 9 1
6487 28 1
6488 29 2
6489 20 1
6489 29 5
6490 21 1
6490 24 3
6491 28 1
6491 31 11
6492 8 1
6493 22 1
6494 2 6
6494 3 36
6494 12 1
6494 34 40
6495 3 1
6496 14 1
6497 29 2
6498 34 1
6499 29 1
6500 2 1
6501 5 1
6502 5 1
6503 29 6
6504 29 3
6505 9 1
6505 29 24
6505 30 3
6506 25 1
6506 26 2
6507 21 1
6508 26 1
6509 10 1
6510 29 1
6511 31 3
6512 9 9
6512 10 10
6512 11 11
6512 31 1
6513 38 1
6514 34 1
6515 21 2
6515 22 1
6516 22 1
6517 8 1
6518 20 1
6519 29 1
6520 15 2
6521 4 13
6521 5 26
6521 38 24
6522 21 2
6522 22 2
6523 2 6
6523 3 4
6523 25 1
6523 26 4
6523 31 3
6523 34 5
6524 3 1
6524 31 5
6525 24 35
6526 2 1
6527 5 2
6528 8 3
6529 31 9
6530 21 1
6531 23 1
6531 24 13
6532 1 1
6532 2 15
6532 3 16
6532 5 1
6532 34 20
6533 3 1
6534 10 1
6534 24 1
6535 21 1
6536 8 1
6536 19 1
6536 21 1
6536 22 1
6537 28 1
6538 9 1
6539 5 1
6539 11 1
6540 5 1
6541 2 1
6541 3 13
6541 28 1
6541 34 15
6542 14 1
6543 2 1
6543 34 2
6544 4 7
6544 5 15
6544 38 21
6545 2 1
6546 4 6
6546 5 16
6546 12 1
6546 29 1
6546 38 19
6547 23 1
6547 24 2
6547 25 2
6547 26 3
6547 34 1
6548 29 1
6549 4 1
6549 26 11
6550 24 1
6550 38 1
6551 3 1
6551 7 1
6552 2 1
6552 8 2
6552 14 1
6553 2 1
6554 21 9
6554 22 7
6555 24 11
6555 34 1
6556 31 1
6557 12 1
6557 20 1
6558 19 1
6558 21 1
6559 5 1
6560 5 1
6560 28 1
6561 2 1
6562 26 1
6563 29 5
6563 30 1
6564 21 1
6565 15 2
6565 16 3
6565 17 2
6565 24 1
6566 3 1
6567 19 1
6567 24 1
6568 24 16
6569 29 1
6570 34 1
6571 5 1
6572 18 12
6572 19 9
6572 20 10
6573 4 1
6573 5 2
6573 17 1
6573 38 3
6574 3 1
6575 22 1
6576 34 1
6577 20 1
6578 26 1
6579 12 1
6579 28 3
6580 34 1
6581 5 1
6582 4 1
6583 19 1
6584 2 4
6584 3 7
6584 34 17
6585 18 2
6585 19 1
6585 20 3
6586 24 28
6587 38 1
6588 3 1
6588 14 1
6589 31 6
6590 12 1
6590 29 4
6591 29 1
6592 12 2
6592 14 1
6592 17 1
6593 38 1
6594 18 1
6595 2 1
6596 21 26
6596 22 11
6596 34 1
6597 38 1
6598 24 2
6598 34 1
6599 18 3
6599 19 1
6599 20 4
6600 11 1
6601 24 5
6602 2 1
6603 12 1
6604 24 10
6604 34 1
6605 2 2
6605 3 1
6605 24 2
6605 28 1
6606 8 2
6608 1 1
6608 2 16
6608 3 39
6608 34 74
6609 19 1
6610 24 7
6611 7 2
6611 8 2
6612 7 9
6612 8 13
6612 21 16
6612 22 3
6613 3 1
6613 25 1
6613 26 4
6613 29 1
6614 2 17
6614 3 11
6614 34 21
6615 2 1
6616 24 1
6616 34 1
6617 2 2
6617 3 9
6617 34 11
6618 26 1
6619 34 1
6620 2 6
6620 3 16
6620 34 18
6621 3 1
6622 4 1
6622 5 1
6622 7 2
6622 8 5
6622 22 1
6622 38 2
6623 2 2
6623 3 11
6623 34 13
6624 38 1
6625 23 1
6626 26 1
6627 2 4
6627 3 12
6627 10 1
6627 22 1
6627 34 17
6628 24 4
6629 3 1
6629 11 1
6629 15 1
6630 5 1
6631 3 1
6632 11 1
6633 3 1
6634 4 12
6634 5 64
6634 29 24
6634 30 1
6634 34 2
6634 38 54
6635 29 2
6636 3 1
6637 3 1
6637 29 1
6637 34 1
6638 9 1
6639 29 6
6639 30 1
6640 34 1
6641 15 2
6642 21 2
6643 2 1
6643 3 3
6643 34 2
6644 5 1
6644 19 1
6645 34 1
6646 12 2
6646 14 1
6647 34 1
6648 2 2
6648 3 1
6648 18 1
6648 20 1
6648 29 1
6649 24 1
6650 24 1
6651 12 1
6651 14 2
6652 29 1
6653 2 3
6653 3 8
6653 31 2
6653 34 3
6654 29 12
6655 26 12
6655 28 1
6655 34 1
6656 1 1
6656 2 6
6656 3 6
6656 11 1
6656 24 1
6656 29 7
6656 30 1
6656 34 7
6657 4 5
6657 5 16
6657 24 1
6657 38 14
6658 26 4
6659 24 1
6660 5 2
6660 38 6
6661 24 4
6662 29 12
6662 30 1
6663 3 1
6663 10 1
6663 38 1
6664 3 1
6664 4 1
6664 11 1
6664 29 6
6665 34 1
6666 24 1
6667 7 1
6667 8 2
6667 10 1
6668 38 1
6669 4 1
6669 18 6
6669 19 16
6670 29 9
6671 7 4
6671 8 6
6671 18 2
6671 29 3
6672 2 17
6672 3 27
6672 5 1
6672 34 36
6673 31 7
6674 2 1
6674 18 2
6674 19 6
6675 29 1
6676 7 1
6676 38 1
6677 20 1
6678 24 24
6678 38 1
6679 17 1
6680 21 1
6681 24 16
6682 5 2
6683 3 1
6683 7 2
6683 22 1
6684 21 3
6684 22 4
6684 34 1
6685 34 1
6686 3 1
6687 5 1
6688 2 1
6688 3 1
6689 9 10
6689 10 5
6689 11 10
6689 38 1
6690 2 1
6691 29 6
6692 2 3
6692 3 5
6692 24 6
6692 34 4
6693 5 1
6693 26 1
6693 34 1
6694 8 1
6694 29 4
6695 7 11
6695 8 22
6695 38 1
6696 2 13
6696 3 34
6696 34 50
6697 8 1
6697 21 21
6697 22 21
6698 5 1
6698 18 1
6698 25 2
6698 26 10
6699 38 1
6700 12 1
6700 19 1
6700 24 21
6700 34 1
6701 10 1
6701 24 13
6702 31 1
6703 3 1
6704 34 1
6705 24 1
6706 38 1
6707 19 1
6708 8 1
6709 12 1
6709 14 1
6709 38 1
6710 1 1
6711 19 1
6712 18 1
6713 18 6
6713 19 6
6713 20 11
6713 34 1
6714 2 1
6714 3 6
6714 34 3
6715 4 4
6715 5 17
6715 38 22
6716 21 2
6716 22 3
6717 18 1
6717 19 1
6717 20 1
6717 34 1
6718 26 2
6719 12 1
6719 14 2
6719 29 1
6720 14 1
6721 11 1
6722 18 1
6723 7 1
6724 7 1
6724 12 1
6724 18 5
6724 19 5
6724 20 6
6725 2 2
6725 3 5
6725 19 1
6725 31 12
6725 34 4
6726 26 1
6727 7 6
6727 8 24
6728 12 7
6728 14 5
6729 30 1
6730 2 1
6731 26 1
6732 24 23
6732 38 1
6733 21 1
6734 19 2
6735 2 1
6735 8 2
6735 18 1
6735 22 1
6735 38 1
6736 4 5
6736 5 24
6736 38 24
6737 8 1
6738 24 1
6739 18 1
6739 19 4
6739 20 1
6740 13 1
6741 38 1
6742 4 1
6743 3 1
6743 5 1
6743 14 2
6743 26 2
6743 29 15
6743 30 1
6744 31 2
6745 1 1
6746 4 2
6746 5 10
6746 24 1
6746 38 11
6747 4 1
6747 5 7
6748 21 1
6749 29 1
6750 16 1
6751 9 1
6752 19 1
6752 31 10
6753 2 2
6753 3 7
6753 34 3
6754 34 1
6755 4 2
6755 21 1
6755 22 1
6755 38 3
6756 8 1
6757 18 20
6757 19 18
6757 20 12
6758 3 2
6758 34 1
6759 24 1
6760 19 1
6761 8 1
6762 21 2
6762 22 3
6762 34 1
6763 3 1
6763 10 1
6763 11 1
6764 24 1
6765 31 1
6766 31 1
6767 31 1
6768 21 2
6769 11 1
6769 28 1
6770 24 1
6771 2 8
6771 3 3
6771 34 6
6772 19 1
6772 34 1
6773 3 1
6773 22 1
6774 2 9
6774 3 17
6774 34 8
6775 31 2
6776 8 1
6776 22 1
6776 34 1
6777 24 2
6777 28 3
6778 28 2
6779 21 12
6779 22 7
6780 29 1
6781 3 1
6781 12 14
6781 13 4
6781 14 18
6781 34 1
6782 3 3
6782 34 16
6782 38 1
6783 22 1
6784 38 1
6785 29 7
6786 34 1
6787 3 2
6787 29 7
6787 34 2
6788 21 4
6789 29 8
6790 20 1
6791 19 1
6792 29 16
6793 2 23
6793 3 29
6793 34 23
6794 5 1
6795 24 7
6796 3 1
6797 34 1
6798 9 1
6798 18 8
6798 21 6
6798 22 3
6798 34 1
6799 5 1
6800 26 5
6801 26 8
6801 29 21
6801 30 3
6802 18 1
6803 31 1
6804 18 8
6804 19 13
6805 10 1
6806 8 1
6807 19 1
6807 26 4
6807 34 1
6808 9 1
6808 19 1
6808 31 1
6809 29 1
6810 26 3
6810 29 11
6810 30 2
6811 20 1
6811 24 6
6812 28 7
6812 38 1
6813 29 2
6814 5 1
6815 8 2
6816 5 1
6816 38 1
6817 19 1
6818 14 1
6819 29 15
6819 30 5
6820 24 1
6821 3 1
6821 10 5
6821 21 4
6821 22 4
6822 29 1
6822 38 2
6823 4 1
6824 2 1
6824 18 8
6824 19 11
6824 20 5
6825 12 1
6825 38 1
6826 21 1
6826 24 1
6827 2 2
6827 21 1
6827 34 1
6828 2 1
6828 5 1
6828 22 1
6828 31 1
6828 34 1
6829 34 1
6830 11 1
6830 18 2
6830 19 3
6830 21 10
6830 22 6
6831 29 1
6832 2 1
6832 18 1
6832 19 2
6832 20 1
6832 21 1
6833 5 1
6834 22 1
6835 19 1
6835 38 1
6836 38 1
6837 29 1
6838 9 1
6838 10 2
6838 11 2
6838 12 2
6838 13 1
6839 31 1
6840 10 2
6840 11 1
6841 2 1
6842 18 1
6843 3 1
6843 38 1
6844 3 1
6844 22 1
6845 5 1
6846 2 1
6847 15 1
6847 16 2
6848 4 1
6848 5 17
6848 18 5
6848 19 7
6848 20 2
6848 38 23
6849 20 1
6849 31 4
6850 5 1
6851 34 1
6852 34 1
6853 5 1
6854 24 1
6855 12 1
6855 38 1
6856 31 1
6857 26 1
6857 31 1
6858 3 1
6859 2 1
6859 3 6
6859 34 3
6860 3 1
6861 12 1
6862 28 1
6863 4 4
6863 5 21
6863 38 31
6864 5 1
6865 21 23
6865 22 19
6866 29 15
6866 30 2
6867 2 1
6868 31 4
6868 34 1
6869 20 1
6870 19 1
6871 4 5
6871 5 23
6871 38 30
6872 21 28
6872 22 17
6873 22 1
6873 34 1
6874 19 1
6874 28 1
6874 34 1
6875 5 1
6876 34 2
6877 12 1
6878 5 1
6878 18 2
6878 19 1
6879 21 1
6880 2 8
6880 3 22
6880 34 18
6881 9 1
6882 24 1
6883 24 1
6884 4 1
6884 5 12
6884 38 17
6885 18 1
6886 3 1
6887 7 1
6888 19 1
6888 24 8
6889 34 1
6890 3 1
6891 34 1
6892 4 12
6892 5 51
6892 38 52
6893 15 2
6893 16 1
6893 17 1
6893 34 1
6894 4 1
6894 5 12
6894 29 1
6894 38 5
6895 29 1
6896 7 1
6897 29 4
6898 3 1
6899 24 1
6900 7 1
6900 8 1
6901 21 1
6902 3 1
6903 21 30
6903 22 13
6904 3 1
6905 34 2
6906 2 6
6906 3 6
6906 34 3
6907 15 1
6908 10 3
6908 11 2
6909 18 1
6909 31 1
6910 34 1
6911 10 1
6911 17 1
6911 18 12
6911 19 26
6911 20 9
6911 21 1
6912 24 1
6912 26 1
6912 29 3
6912 31 6
6913 38 1
6914 1 1
6914 2 20
6914 3 39
6914 5 1
6914 34 51
6915 4 11
6915 5 66
6915 38 66
6916 5 1
6916 10 1
6916 24 2
6916 34 4
6917 3 1
6917 7 2
6918 22 1
6919 18 1
6919 34 1
6920 3 1
6921 18 1
6922 18 34
6922 19 47
6922 20 15
6923 21 1
6923 24 1
6924 26 1
6925 19 1
6925 21 16
6925 22 10
6926 4 2
6926 5 21
6926 38 13
6927 28 1
6928 25 1
6928 26 2
6928 34 1
6929 21 10
6929 22 4
6930 1 2
6930 2 11
6930 3 38
6930 34 61
6931 5 1
6931 9 22
6931 10 52
6931 11 23
6932 3 1
6932 38 1
6933 5 1
6933 8 1
6933 12 11
6933 14 11
6933 34 1
6934 18 2
6934 19 1
6934 20 2
6934 34 1
6935 11 1
6935 15 2
6935 16 1
6935 17 1
6936 7 1
6937 34 1
6938 19 1
6939 12 1
6940 9 4
6940 10 1
6940 11 5
6940 24 13
6941 15 16
6941 16 5
6941 17 7
6942 34 1
6943 8 1
6943 21 1
6944 34 1
6945 28 4
6946 29 5
6947 19 1
6948 3 1
6949 9 1
6950 38 1
6951 10 1
6951 38 1
6952 24 1
6953 10 1
6954 23 1
6954 24 15
6954 29 3
6955 19 1
6955 29 11
6955 30 1
6955 34 1
6956 31 11
6956 38 1
6957 9 18
6957 10 24
6957 11 14
6958 2 19
6958 3 32
6958 24 1
6958 34 48
6959 3 1
6960 2 1
6960 12 1
6960 20 1
6960 21 1
6960 34 2
6962 19 1
6962 21 1
6962 22 1
6963 11 1
6963 20 1
6964 34 1
6965 15 1
6966 8 1
6966 14 1
6966 29 4
6966 34 2
6967 12 1
6968 18 1
6968 19 1
6969 21 15
6969 22 8
6969 34 1
6970 18 1
6970 24 8
6971 19 1
6971 24 4
6972 5 1
6972 24 1
6973 2 1
6974 1 1
6974 2 26
6974 3 67
6974 26 5
6974 34 85
6975 8 1
6976 28 1
6977 29 1
6978 18 1
6979 7 12
6979 8 15
6980 25 1
6980 26 1
6981 5 1
6982 2 1
6983 20 1
6984 28 5
6985 29 13
6985 30 3
6986 21 1
6987 5 1
6987 28 1
6987 29 3
6988 18 1
6988 26 1
6989 29 23
6990 3 1
6991 5 1
6992 20 1
6993 4 1
6993 5 16
6993 38 23
6994 12 3
6994 14 4
6994 31 1
6995 24 1
6995 29 2
6995 31 1
6996 1 1
6997 19 1
6998 17 1
6999 24 1
6999 26 1
7000 4 4
7000 5 24
7000 38 20
7001 18 1
7002 38 1
7003 31 4
7004 26 5
7005 5 1
7006 21 30
7006 22 14
7006 24 1
7007 12 1
7007 29 19
7008 29 1
7008 34 1
7009 5 1
7009 28 1
7010 26 3
7011 29 1
7012 21 1
7013 18 14
7013 19 22
7013 20 11
7013 29 1
7014 25 3
7014 26 31
7015 20 1
7016 12 1
7017 9 1
7018 17 1
7019 20 1
7020 24 2
7021 3 1
7022 5 1
7022 21 1
7023 3 1
7023 22 1
7024 21 1
7025 7 1
7026 24 2
7026 28 9
7027 18 4
7027 19 2
7027 20 1
7028 15 1
7028 18 1
7029 18 1
7029 19 1
7029 29 1
7030 21 19
7030 22 10
7031 2 1
7031 18 2
7031 19 1
7031 20 1
7032 29 23
7032 30 1
7032 34 1
7033 5 2
7033 38 3
7034 23 1
7035 24 1
7036 21 2
7036 25 2
7036 26 6
7037 2 1
7037 3 1
7038 5 1
7039 26 3
7040 29 12
7040 30 1
7041 19 1
7042 24 1
7042 34 1
7043 2 2
7043 3 6
7043 34 4
7044 18 24
7044 19 21
7044 20 16
7045 24 9
7046 38 1
7047 18 1
7048 3 1
7049 17 1
7050 12 16
7050 14 10
7051 3 1
7052 34 1
7053 1 1
7053 2 5
7053 34 8
7054 5 1
7054 12 1
7054 14 1
7054 38 1
7055 34 1
7056 3 1
7056 24 20
7056 31 22
7057 19 1
7058 2 1
7059 8 1
7059 12 1
7059 14 3
7060 38 1
7061 31 12
7062 21 1
7063 34 1
7064 12 1
7065 1 1
7065 2 12
7065 3 15
7065 34 17
7066 12 1
7067 3 1
7068 5 1
7069 5 1
7070 4 13
7070 5 46
7070 18 1
7070 25 1
7070 38 52
7071 5 1
7072 31 2
7073 19 1
7073 29 1
7074 21 1
7075 5 1
7076 9 1
7077 29 1
7078 12 1
7078 38 1
7079 26 1
7080 12 1
7080 24 20
7080 25 1
7080 26 2
7081 7 4
7081 8 6
7081 34 1
7082 24 17
7082 29 23
7082 30 2
7082 31 5
7083 29 1
7084 4 2
7084 5 5
7084 38 2
7085 25 2
7085 26 6
7086 3 1
7087 2 1
7088 3 1
7089 18 1
7089 19 4
7090 34 1
7091 21 1
7092 21 26
7092 22 7
7092 34 1
7093 2 1
7093 3 1
7093 30 1
7093 34 3
7094 2 3
7094 3 8
7094 34 7
7095 9 1
7096 21 1
7097 11 1
7097 24 1
7098 2 1
7099 34 1
7100 38 1
7101 4 5
7101 5 10
7101 21 13
7101 22 8
7101 38 13
7102 34 1
7103 24 1
7104 3 1
7105 7 3
7105 8 5
7105 12 16
7105 14 4
7106 10 1
7107 38 1
7108 5 1
7108 34 1
7108 38 2
7109 23 1
7109 34 1
7110 29 4
7111 3 1
7111 21 1
7111 29 4
7111 30 1
7112 34 1
7113 2 1
7114 5 1
7115 15 1
7115 16 5
7115 17 2
7116 11 1
7117 34 1
7118 5 19
7118 38 18
7119 26 1
7120 38 1
7121 4 5
7121 5 16
7121 38 20
7122 21 1
7123 28 1
7124 8 1
7125 1 1
7125 2 10
7125 3 13
7125 24 4
7125 34 17
7126 24 1
7127 34 1
7128 12 1
7129 4 1
7129 5 2
7129 38 1
7130 24 8
7130 26 3
7131 3 1
7131 29 1
7131 31 3
7132 19 1
7133 2 9
7133 3 11
7133 25 2
7133 26 4
7133 34 15
7134 3 1
7135 1 1
7135 2 9
7135 3 26
7135 5 1
7135 34 19
7136 34 1
7137 20 1
7138 7 1
7139 14 1
7139 31 2
7140 12 1
7141 19 1
7141 29 5
7142 3 1
7142 29 1
7143 28 1
7144 2 3
7144 3 8
7144 4 1
7144 17 1
7144 34 7
7145 22 1
7146 14 1
7147 19 1
7148 9 1
7148 26 1
7149 5 1
7150 29 9
7150 30 2
7150 38 1
7151 22 1
7152 24 1
7153 7 1
7154 3 1
7154 8 1
7154 14 2
7154 19 1
7154 24 2
7154 29 1
7154 38 1
7155 3 1
7156 18 6
7156 19 21
7156 20 4
7157 14 1
7157 38 1
7158 9 12
7158 10 23
7158 11 8
7158 29 5
7159 1 1
7159 2 5
7159 3 24
7159 31 1
7159 34 14
7160 2 1
7160 3 1
7160 14 1
7160 34 1
7161 38 1
7162 20 1
7163 21 1
7164 34 1
7165 29 1
7165 34 2
7166 10 1
7166 29 5
7167 15 1
7167 19 1
7167 38 1
7168 5 1
7169 3 1
7169 34 2
7170 15 3
7170 16 3
7170 17 3
7170 34 1
7171 22 1
7171 34 1
7172 12 1
7173 15 5
7173 16 1
7173 17 2
7174 2 14
7174 3 18
7174 29 1
7174 34 25
7175 3 1
7175 26 3
7176 22 1
7177 24 1
7178 21 1
7178 31 3
7179 2 2
7179 3 1
7179 31 5
7179 34 1
7180 3 1
7181 34 1
7182 12 1
7182 17 1
7183 1 1
7183 2 15
7183 3 28
7183 29 1
7183 34 25
7184 13 1
7184 25 1
7184 26 3
7185 5 1
7186 5 1
7186 12 1
7187 24 1
7188 2 1
7188 24 4
7188 26 1
7188 29 14
7189 2 1
7190 19 1
7191 34 1
7192 12 2
7192 14 5
7192 24 1
7193 4 7
7193 5 20
7193 17 1
7193 38 46
7194 28 1
7195 9 3
7195 10 5
7195 11 1
7196 26 3
7197 24 1
7198 24 1
7199 29 13
7200 18 1
7201 22 1
7202 18 1
7202 19 2
7203 18 1
7204 38 1
7205 12 23
7205 14 15
7206 4 1
7207 26 1
7208 19 1
7209 10 1
7210 24 1
7211 18 29
7211 19 35
7211 20 13
7212 2 1
7212 19 1
7213 28 1
7214 12 1
7214 14 3
7215 7 1
7215 12 1
7215 24 9
7216 18 14
7216 19 32
7216 20 10
7216 22 1
7217 24 3
7217 31 1
7218 24 12
7219 24 1
7220 3 1
7220 5 1
7221 4 1
7221 5 1
7221 38 3
7222 38 2
7223 11 1
7224 5 4
7224 38 5
7225 3 1
7225 4 2
7225 5 31
7225 38 25
7226 2 1
7227 2 20
7227 3 42
7227 34 41
7228 34 1
7229 29 1
7230 24 1
7231 34 2
7232 38 1
7233 34 1
7234 4 1
7235 29 1
7236 3 1
7237 3 1
7238 3 1
7239 3 1
7240 20 1
7241 18 14
7241 19 23
7241 20 7
7242 15 20
7242 16 14
7242 17 16
7242 31 1
7243 21 6
7243 22 7
7243 34 1
7244 34 1
7245 19 1
7246 4 1
7247 19 1
7248 18 19
7248 19 31
7248 20 13
7249 25 1
7249 31 8
7250 2 1
7250 28 2
7250 34 1
7251 5 9
7251 7 3
7251 8 3
7251 38 7
7252 3 1
7252 38 1
7253 38 1
7254 2 1
7254 15 1
7254 22 1
7255 4 3
7255 5 18
7255 38 10
7256 3 1
7256 22 1
7256 28 1
7256 38 1
7257 5 1
7258 12 1
7259 29 1
7260 24 8
7261 24 1
7262 5 1
7263 23 1
7264 15 1
7265 5 1
7265 34 1
7266 18 2
7266 25 2
7266 26 9
7266 29 30
7266 30 1
7267 24 17
7268 19 1
7269 18 1
7269 24 39
7270 5 1
7270 9 1
7270 34 1
7271 31 1
7272 9 12
7272 10 18
7272 11 12
7273 5 1
7274 15 1
7275 15 1
7276 2 3
7276 3 3
7276 5 3
7276 34 5
7276 38 3
7277 26 2
7278 29 1
7279 24 3
7280 19 1
7281 3 1
7282 31 3
7283 2 1
7284 19 1
7285 4 7
7285 5 20
7285 38 19
7286 24 22
7287 31 3
7288 2 1
7288 12 2
7288 14 2
7288 24 2
7288 29 1
7289 24 1
7290 5 1
7291 21 4
7291 22 3
7292 38 1
7293 8 1
7294 15 1
7294 17 1
7294 22 59
7294 34 3
7295 12 1
7296 5 1
7296 24 1
7296 34 2
7297 24 18
7298 31 1
7299 3 1
7299 5 2
7299 15 1
7299 24 1
7299 29 3
7300 5 1
7300 12 1
7300 21 1
7300 26 1
7301 1 1
7301 2 8
7301 3 2
7301 34 10
7302 29 9
7302 31 1
7303 3 1
7304 2 1
7304 3 2
7304 11 2
7304 24 1
7304 34 3
7305 38 1
7306 3 1
7307 18 1
7307 24 1
7307 29 1
7307 31 1
7308 5 1
7308 16 1
7308 29 2
7308 38 1
7309 4 1
7309 5 1
7309 38 1
7310 9 15
7310 10 19
7310 11 1
7311 10 1
7312 29 7
7312 30 3
7313 2 1
7314 26 1
7315 26 1
7316 4 4
7316 5 16
7316 38 17
7317 5 1
7318 4 1
7318 5 1
7319 10 1
7319 24 1
7320 3 1
7321 2 6
7321 3 15
7321 28 5
7321 34 23
7322 5 1
7322 29 1
7323 21 1
7324 4 1
7324 5 2
7324 18 3
7324 19 2
7325 3 1
7326 3 1
7327 3 1
7327 8 1
7328 21 1
7329 29 1
7331 31 3
7332 24 21
7332 29 23
7332 30 3
7333 38 1
7334 12 3
7334 13 1
7334 14 3
7334 22 1
7334 34 1
7335 29 17
7335 30 1
7336 3 1
7337 2 1
7338 9 1
7339 19 2
7340 18 2
7340 19 2
7340 20 1
7341 3 1
7341 4 2
7341 5 38
7341 20 1
7341 29 1
7341 38 39
7342 5 1
7343 31 11
7343 34 1
7344 18 3
7344 19 2
7344 20 2
7345 24 4
7346 19 1
7347 14 2
7347 38 1
7348 20 1
7348 21 5
7348 22 9
7349 22 1
7350 4 1
7350 5 7
7350 29 2
7350 38 5
7351 34 1
7352 18 1
7352 19 1
7353 12 1
7353 18 2
7353 19 3
7353 20 1
7354 12 1
7354 18 6
7354 19 25
7354 20 1
7355 29 3
7356 17 1
7357 28 3
7357 29 3
7358 24 1
7359 38 1
7360 31 1
7361 3 1
7362 3 1
7363 7 3
7363 8 8
7364 17 1
7364 22 1
7365 18 2
7366 3 1
7366 12 3
7366 14 3
7367 3 1
7368 5 1
7368 21 1
7369 9 1
7370 31 22
7371 5 1
7372 29 4
7372 34 1
7373 4 1
7373 31 10
7374 24 1
7374 38 1
7375 9 8
7375 10 22
7375 11 20
7375 12 12
7375 13 2
7375 14 12
7376 21 1
7377 29 1
7377 34 1
7378 21 1
7379 38 1
7380 14 3
7381 29 2
7382 19 1
7382 29 6
7383 5 1
7383 21 38
7383 22 19
7383 29 1
7384 29 1
7385 34 1
7386 12 1
7386 19 1
7386 34 1
7387 22 1
7388 38 1
7389 12 23
7389 14 18
7390 4 3
7390 5 10
7390 38 18
7391 31 1
7392 2 7
7392 3 9
7392 12 1
7392 14 2
7392 25 2
7392 26 6
7392 34 9
7393 5 1
7394 29 3
7394 34 2
7395 34 1
7396 29 1
7397 34 1
7398 5 1
7399 19 1
7400 7 10
7400 8 16
7400 9 10
7400 10 16
7401 18 8
7401 19 5
7401 20 2
7402 9 1
7402 10 3
7403 9 1
7404 28 3
7405 19 1
7405 26 2
7405 31 1
7406 3 1
7406 5 1
7407 10 1
7407 19 6
7407 20 4
7408 34 1
7409 18 5
7409 19 7
7409 20 1
7410 5 1
7410 38 2
7411 24 7
7412 29 1
7412 30 1
7413 24 6
7414 31 2
7415 5 2
7415 19 3
7416 18 93
7416 19 110
7416 20 45
7417 5 1
7418 20 1
7419 21 8
7419 22 8
7419 34 1
7420 2 2
7420 3 10
7420 31 1
7420 34 7
7421 4 1
7422 12 1
7423 29 1
7424 29 11
7424 30 2
7425 31 2
7426 21 1
7427 17 1
7427 26 4
7428 9 1
7428 29 1
7429 7 1
7430 18 1
7431 4 1
7431 5 5
7431 18 1
7431 20 2
7431 38 5
7432 5 1
7433 8 2
7434 26 1
7435 5 1
7436 21 1
7437 9 1
7438 24 4
7438 31 18
7439 19 1
7439 24 1
7440 12 13
7440 13 1
7440 14 8
7441 26 3
7441 28 2
7442 9 1
7443 3 1
7444 22 1
7445 31 1
7446 25 1
7447 17 1
7448 8 1
7449 10 1
7450 5 1
7451 26 1
7452 9 15
7452 10 30
7452 11 15
7453 2 1
7454 20 1
7455 10 1
7455 34 1
7456 2 1
7456 3 1
7456 5 2
7456 17 1
7457 19 1
7457 29 3
7458 2 1
7459 38 1
7460 21 3
7460 22 5
7461 4 4
7461 5 21
7461 29 1
7461 38 28
7462 3 1
7462 25 3
7462 26 14
7463 38 1
7464 9 2
7464 10 3
7464 11 5
7465 2 2
7465 3 7
7465 34 4
7466 26 3
7467 10 1
7468 2 5
7468 3 17
7468 4 1
7468 31 1
7468 34 15
7469 24 11
7470 19 1
7471 15 1
7472 3 1
7472 8 1
7472 12 1
7473 28 3
7474 19 1
7474 24 19
7475 18 1
7476 14 1
7477 10 1
7478 34 1
7479 2 1
7479 3 8
7479 8 1
7479 19 1
7479 34 20
7480 12 2
7480 14 2
7481 23 1
7481 29 25
7481 30 2
7481 34 1
7482 2 1
7482 18 1
7483 2 1
7483 18 1
7483 22 1
7484 3 1
7484 4 1
7484 5 2
7484 15 6
7484 16 3
7484 17 1
7484 18 11
7484 19 8
7484 20 5
7484 34 1
7484 38 2
7485 19 1
7486 14 1
7486 24 1
7487 19 2
7487 21 7
7487 22 6
7488 12 10
7488 14 5
7489 2 3
7489 3 3
7489 34 5
7490 9 1
7491 7 1
7491 8 10
7492 3 1
7493 3 1
7494 28 1
7495 29 1
7496 3 1
7496 14 1
7497 38 1
7498 29 7
7498 30 1
7500 29 1
7501 19 1
7502 24 13
7502 34 1
7503 29 4
7503 31 2
7504 21 1
7505 24 2
7506 28 8
7507 4 1
7508 24 1
7509 19 1
7510 3 1
7510 25 3
7510 26 7
7511 12 5
7511 14 7
7512 5 15
7512 34 1
7512 38 11
7513 17 1
7514 26 1
7515 34 1
7515 38 1
7516 20 1
7517 29 17
7518 2 1
7518 12 2
7518 13 1
7518 14 1
7519 26 6
7520 8 1
7521 3 1
7522 7 1
7522 29 7
7523 5 1
7524 4 1
7524 5 9
7524 38 7
7525 2 1
7525 9 9
7525 10 6
7525 11 9
7525 38 1
7526 38 1
7527 24 7
7528 24 1
7529 28 2
7530 15 1
7530 18 1
7531 38 1
7532 24 4
7533 38 1
7534 24 1
7535 4 1
7536 28 6
7537 28 2
7538 38 1
7539 28 1
7539 29 11
7539 38 1
7540 4 3
7540 5 41
7540 38 37
7541 25 2
7541 26 3
7542 34 1
7543 34 2
7544 29 8
7544 30 2
7544 31 1
7545 2 1
7545 3 7
7546 2 4
7546 24 1
7546 34 2
7547 24 1
7548 38 1
7549 24 23
7550 24 1
7551 3 1
7552 4 4
7552 5 42
7552 34 1
7552 38 37
7553 3 1
7553 5 1
7553 26 3
7554 28 1
7555 4 1
7555 5 2
7555 38 1
7556 2 8
7556 3 6
7556 34 5
7557 18 9
7557 19 16
7557 20 8
7558 5 1
7558 11 1
7559 2 2
7559 34 7
7560 26 1
7561 18 6
7561 19 15
7561 20 5
7562 12 1
7563 24 3
7564 17 1
7565 19 1
7565 28 3
7565 29 13
7565 30 3
7566 12 4
7566 14 2
7567 12 8
7567 14 6
7568 29 10
7568 30 1
7569 12 22
7569 14 14
7569 18 16
7569 19 23
7569 20 4
7570 5 1
7571 9 2
7571 10 8
7571 11 4
7572 19 1
7573 4 3
7573 5 21
7573 38 15
7574 10 1
7575 2 1
7575 3 1
7575 34 2
7576 14 1
7577 2 2
7577 3 3
7577 34 1
7578 4 1
7579 5 1
7579 9 3
7579 10 1
7579 11 5
7579 19 1
7579 20 1
7579 28 1
7579 38 1
7580 2 4
7580 3 2
7580 17 1
7580 34 4
7581 31 1
7582 34 1
7582 38 2
7583 24 7
7584 5 8
7584 38 2
7585 5 1
7585 12 1
7585 26 4
7586 9 15
7586 10 24
7586 11 19
7586 20 1
7587 8 1
7588 29 1
7589 3 1
7589 7 6
7589 8 11
7589 34 1
7590 24 5
7591 12 1
7592 20 1
7593 15 2
7593 16 2
7593 17 1
7594 34 1
7595 18 1
7596 21 1
7596 24 6
7597 15 1
7597 21 1
7597 29 4
7598 3 1
7599 2 2
7599 3 2
7599 4 1
7599 24 3
7599 34 5
7599 38 3
7600 10 1
7601 12 2
7601 14 1
7601 34 1
7602 2 4
7602 3 8
7602 14 1
7602 21 1
7602 34 11
7603 3 1
7604 24 1
7605 21 18
7605 22 15
7605 26 1
7606 3 1
7607 5 1
7608 5 6
7608 38 8
7609 26 9
7610 38 1
7611 34 1
7612 34 1
7613 5 2
7613 21 1
7613 38 5
7614 34 1
7615 3 1
7615 24 4
7615 26 1
7616 38 2
7617 26 1
7618 3 2
7619 21 1
7620 28 1
7621 34 1
7622 12 10
7622 14 7
7622 16 1
7623 2 1
7624 34 1
7625 11 1
7626 28 2
7627 24 3
7627 34 1
7628 24 8
7629 3 1
7629 4 9
7629 5 35
7629 38 24
7630 19 1
7631 5 1
7632 29 7
7633 14 1
7634 3 1
7634 19 1
7635 34 1
7636 38 1
7637 34 1
7638 34 1
7639 4 2
7639 5 7
7639 28 3
7639 38 10
7640 15 1
7641 12 1
7641 19 1
7642 2 1
7642 3 1
7642 29 1
7643 12 1
7643 29 3
7643 30 1
7644 19 1
7645 31 12
7646 26 3
7647 18 11
7647 19 24
7647 20 4
7647 28 2
7648 23 1
7648 24 14
7649 28 2
7650 3 1
7650 16 1
7650 34 2
7651 2 1
7652 18 15
7652 19 14
7652 20 7
7653 3 1
7654 8 1
7655 24 14
7655 28 5
7656 3 1
7656 5 1
7656 21 1
7657 4 8
7657 5 22
7657 38 40
7658 18 5
7658 19 5
7658 20 1
7659 3 1
7659 21 15
7659 22 9
7659 31 1
7660 24 5
7661 3 1
7661 11 1
7661 29 27
7662 24 5
7663 24 7
7664 20 1
7664 29 24
7664 30 3
7665 31 1
7666 10 1
7667 29 1
7668 29 1
7669 10 1
7669 21 13
7669 22 8
7670 31 7
7671 28 1
7672 21 1
7673 9 1
7673 29 10
7674 31 1
7675 38 2
7676 26 1
7677 5 1
7678 3 1
7679 19 1
7679 26 2
7679 31 5
7680 5 1
7681 12 1
7682 1 1
7682 2 16
7682 3 36
7682 34 26
7683 5 4
7683 38 3
7684 4 1
7684 11 1
7685 2 4
7685 3 1
7686 4 6
7686 5 15
7686 38 20
7687 34 1
7687 38 1
7688 5 1
7688 22 1
7688 29 1
7689 12 1
7689 19 1
7690 21 26
7690 22 22
7691 34 1
7692 3 1
7693 24 1
7694 10 1
7694 34 1
7695 11 1
7696 26 8
7697 10 1
7698 34 1
7699 4 2
7699 5 4
7699 19 1
7699 38 14
7700 3 1
7701 26 1
7702 24 1
7703 29 1
7704 2 1
7704 12 1
7704 24 1
7704 29 27
7704 30 3
7705 29 19
7705 30 1
7706 29 1
7707 31 1
7708 38 1
7709 23 2
7709 24 29
7710 2 1
7711 34 2
7712 2 7
7712 3 7
7712 24 3
7712 34 8
7713 21 1
7714 34 1
7715 9 2
7715 10 11
7715 11 3
7715 24 1
7715 26 1
7716 1 1
7716 2 12
7716 3 10
7716 29 2
7716 34 10
7717 34 1
7718 5 1
7719 1 1
7719 2 5
7719 3 6
7719 34 7
7720 19 1
7721 9 1
7721 10 1
7721 11 2
7721 18 3
7721 19 2
7721 20 2
7721 23 1
7722 18 90
7722 19 68
7722 20 21
7723 19 1
7724 31 1
7725 18 1
7726 31 18
7727 20 1
7728 3 1
7729 24 7
7730 21 1
7731 5 1
7732 29 3
7733 2 2
7733 3 7
7733 34 14
7734 18 1
7735 34 1
7735 38 1
7736 21 23
7736 22 16
7737 26 3
7737 31 3
7737 38 1
7738 29 1
7739 29 1
7740 12 1
7740 20 1
7740 21 3
7740 22 1
7741 2 2
7741 3 2
7741 4 1
7741 29 1
7741 31 1
7741 34 1
7742 3 3
7742 12 1
7742 13 1
7742 34 2
7743 29 3
7744 21 1
7745 38 1
7746 3 1
7747 2 1
7748 7 9
7748 8 12
7748 21 1
7749 28 1
7750 26 1
7751 29 1
7752 4 5
7752 5 13
7752 38 14
7753 19 1
7753 28 5
7754 24 1
7755 7 1
7755 31 6
7756 9 1
7756 23 1
7756 24 20
7757 9 2
7757 10 4
7757 11 5
7758 8 1
7759 25 1
7759 26 4
7760 18 1
7761 3 1
7762 2 1
7762 24 34
7763 34 1
7764 12 1
7765 2 1
7765 34 1
7766 18 4
7766 19 5
7766 20 1
7767 18 2
7767 19 1
7768 21 1
7768 28 2
7769 18 1
7770 10 1
7770 26 5
7770 29 1
7770 31 1
7771 24 2
7772 10 1
7773 3 1
7773 19 1
7773 22 1
7773 34 1
7774 8 2
7774 11 1
7774 24 1
7775 5 1
7776 21 1
7776 25 1
7777 24 1
7778 15 1
7778 17 1
7779 34 1
7780 7 19
7780 8 33
7780 12 20
7780 13 2
7780 14 16
7780 21 1
7780 28 1
7781 19 1
7782 10 1
7783 21 1
7784 12 1
7785 4 1
7785 19 1
7786 5 1
7787 19 1
7788 29 1
7789 10 1
7790 24 6
7791 5 1
7792 4 1
7792 5 2
7792 38 2
7793 18 4
7793 19 9
7793 20 7
7794 18 9
7794 19 22
7794 20 6
7794 34 1
7795 3 2
7795 24 1
7795 38 1
7796 38 1
7797 34 1
7798 38 1
7799 29 1
7800 5 1
7801 5 2
7801 8 1
7802 18 1
7803 34 1
7804 34 1
7805 19 1
7806 12 1
7807 7 7
7807 8 8
7807 24 1
7808 34 1
7809 19 1
7810 18 24
7810 19 18
7810 20 7
7810 34 1
7811 18 5
7811 19 7
7811 20 7
7812 18 1
7813 18 1
7814 3 2
7814 34 8
7815 24 1
7816 3 1
7817 25 1
7818 18 1
7818 31 1
7819 5 5
7819 38 3
7820 2 1
7821 38 1
7822 21 1
7823 2 1
7823 21 9
7823 22 3
7824 3 1
7824 19 1
7824 31 1
7825 3 1
7826 9 5
7826 10 11
7826 11 12
7827 4 7
7827 5 31
7827 15 11
7827 16 8
7827 17 4
7827 19 1
7827 38 35
7828 2 1
7828 5 1
7829 2 1
7830 8 1
7830 22 1
7830 34 1
7831 2 1
7831 21 10
7831 22 2
7832 28 1
7833 2 1
7833 5 7
7833 19 1
7833 38 4
7834 8 1
7834 24 8
7835 2 1
7835 12 17
7835 14 7
7835 38 1
7836 4 4
7836 5 22
7836 38 29
7837 11 1
7838 2 1
7838 20 1
7839 14 1
7839 26 1
7839 29 1
7840 29 1
7841 2 11
7841 3 14
7841 34 18
7842 28 1
7843 5 1
7844 34 2
7845 4 1
7845 24 9
7846 24 2
7846 25 2
7846 26 2
7847 25 1
7847 26 1
7848 38 1
7849 18 1
7850 9 6
7850 10 11
7850 11 10
7851 38 1
7852 22 1
7852 24 1
7852 26 1
7852 28 1
7852 34 1
7853 31 1
7853 34 1
7854 5 1
7854 16 1
7854 19 1
7854 29 24
7855 2 1
7855 31 2
7856 20 1
7857 18 1
7858 12 1
7859 5 1
7860 8 1
7861 2 3
7861 3 3
7861 24 1
7861 34 4
7862 2 3
7862 3 44
7862 15 1
7862 34 80
7863 19 1
7864 5 1
7865 5 1
7865 29 5
7865 34 2
7865 38 1
7866 5 1
7866 18 1
7866 38 1
7867 18 1
7868 26 2
7869 20 1
7870 22 1
7870 24 8
7871 18 1
7872 3 2
7873 24 8
7874 5 1
7874 34 1
7875 31 1
7876 3 2
7876 4 13
7876 5 64
7876 12 1
7876 28 3
7876 38 89
7877 29 2
7878 19 1
7878 29 7
7878 30 1
7879 2 2
7879 25 2
7879 26 2
7880 12 2
7881 2 1
7881 12 22
7881 13 1
7881 14 8
7882 19 1
7883 34 1
7884 24 1
7884 29 6
7885 24 2
7886 24 1
7887 3 1
7887 18 19
7887 19 32
7887 20 13
7888 5 1
7888 24 2
7888 28 4
7888 34 1
7889 38 1
7890 12 1
7891 29 1
7892 5 1
7892 19 1
7893 18 1
7894 31 6
7896 21 1
7897 18 1
7898 20 1
7899 18 1
7899 31 5
7900 4 12
7900 5 33
7900 38 46
7901 38 1
7902 10 1
7902 29 1
7903 18 12
7903 19 24
7903 20 12
7904 34 1
7905 4 6
7905 5 9
7905 38 13
7906 18 3
7906 19 2
7907 7 9
7907 8 11
7907 20 1
7907 24 1
7908 31 4
7908 34 1
7909 31 7
7910 38 1
7911 18 1
7911 29 6
7912 1 1
7912 2 15
7912 3 38
7912 18 1
7912 24 6
7912 31 6
7912 34 18
7912 38 1
7913 1 1
7913 15 1
7914 5 1
7914 21 1
7915 24 1
7916 19 1
7917 26 1
7918 1 2
7918 2 9
7918 3 25
7918 11 1
7918 34 27
7919 2 3
7919 3 10
7919 34 7
7920 15 1
7920 34 1
7921 26 1
7922 10 1
7923 2 3
7923 3 12
7923 34 9
7924 29 6
7924 34 1
7925 9 1
7925 29 5
7926 21 2
7926 22 3
7927 24 1
7928 4 9
7928 5 37
7928 38 43
7929 11 30
7930 34 1
7931 24 1
7932 29 3
7933 28 2
7934 2 10
7934 3 15
7934 26 2
7934 31 1
7934 34 11
7935 12 5
7935 14 1
7936 12 1
7937 3 1
7938 15 9
7938 16 3
7938 17 6
7939 10 1
7939 11 1
7940 4 9
7940 5 13
7940 38 27
7941 4 1
7942 8 1
7942 9 1
7943 19 1
7945 24 1
7946 7 1
7947 3 1
7948 21 8
7948 22 2
7949 3 2
7949 8 1
7950 2 6
7950 3 16
7950 20 1
7950 34 10
7951 5 7
7951 29 1
7951 38 5
7952 8 1
7953 7 15
7953 8 29
7954 18 1
7955 26 2
7956 12 1
7957 24 3
7958 5 1
7958 38 1
7959 24 1
7960 4 4
7960 5 8
7960 38 13
7961 8 1
7962 18 10
7962 19 23
7962 20 6
7963 2 4
7963 3 7
7963 34 11
7964 2 1
7964 28 1
7964 38 1
7965 31 3
7966 34 1
7967 34 1
7968 3 1
7968 5 1
7969 2 1
7969 4 1
7969 5 3
7969 9 1
7969 38 4
7970 34 1
7971 18 14
7971 19 23
7971 20 4
7972 5 1
7972 9 1
7973 16 1
7973 22 1
7973 34 1
7974 2 1
7974 34 1
7975 2 19
7975 3 27
7975 21 1
7975 24 6
7975 34 37
7976 34 1
7977 5 1
7978 29 5
7979 10 1
7979 11 1
7980 21 1
7980 24 3
7980 26 1
7980 29 11
7981 22 1
7982 8 1
7983 34 1
7984 29 1
7984 30 1
7985 4 1
7986 2 1
7986 3 3
7986 26 1
7986 34 2
7987 4 1
7988 2 2
7988 3 4
7988 34 1
7989 31 1
7990 11 1
7991 9 10
7991 10 18
7991 11 6
7991 16 1
7992 10 1
7993 1 2
7993 2 11
7993 3 15
7993 29 6
7993 34 18
7994 22 1
7995 11 1
7996 24 1
7997 31 4
7998 15 1
7999 38 1
8000 3 1
8001 11 1
8002 2 1
8003 14 1
8004 7 1
8005 30 1
8006 10 1
8006 31 3
8007 21 1
8008 23 1
8008 24 2
8008 26 1
8009 24 1
8010 28 1
8011 3 1
8012 12 6
8012 18 10
8013 3 1
8014 3 1
8015 7 1
8016 21 1
8017 21 21
8017 22 20
8018 29 2
8019 24 1
8020 4 1
8021 12 1
8021 19 1
8021 28 1
8022 28 8
8023 15 3
8023 16 1
8024 25 1
8024 26 6
8025 12 4
8025 14 1
8025 34 1
8026 4 5
8026 5 14
8026 29 1
8026 38 16
8027 5 1
8027 12 1
8027 23 1
8027 24 2
8027 26 1
8027 28 3
8028 29 1
8029 18 1
8029 34 1
8030 18 40
8030 19 55
8030 20 11
8030 34 1
8031 3 1
8031 38 1
8032 3 1
8032 5 1
8032 21 1
8032 22 3
8032 38 1
8033 5 1
8034 18 1
8034 24 10
8035 5 1
8036 5 1
8037 14 3
8038 2 1
8039 9 12
8039 10 14
8039 11 6
8040 7 1
8040 24 1
8041 29 6
8041 30 2
8042 18 1
8043 7 2
8043 8 2
8044 34 1
8045 29 1
8046 34 1
8047 5 1
8048 20 1
8048 21 1
8048 22 1
8049 29 1
8050 18 17
8050 19 36
8050 20 10
8051 12 1
8052 5 1
8053 29 10
8054 2 15
8054 3 11
8054 34 8
8055 29 1
8056 38 1
8057 34 1
8058 12 1
8058 14 1
8058 34 1
8059 38 2
8060 8 1
8061 19 2
8061 20 1
8062 24 2
8063 22 1
8064 21 1
8064 23 2
8064 24 8
8065 34 1
8066 21 37
8066 22 19
8066 29 1
8067 26 1
8068 10 1
8068 29 13
8068 30 1
8069 21 1
8070 3 1
8070 9 1
8070 11 1
8071 3 1
8072 24 5
8073 2 20
8073 3 40
8073 18 1
8073 34 24
8074 29 1
8075 18 2
8075 19 1
8076 15 3
8076 16 3
8076 17 4
8077 8 1
8078 29 18
8078 30 1
8079 15 1
8079 17 1
8080 3 2
8080 7 1
8080 26 2
8081 5 1
8082 25 1
8082 26 19
8083 9 1
8084 5 1
8084 18 11
8084 19 9
8084 20 1
8084 21 34
8084 22 28
8085 24 13
8086 2 1
8086 4 1
8086 5 8
8086 24 1
8086 38 5
8087 5 1
8088 28 1
8088 34 1
8089 22 1
8090 19 1
8091 19 1
8092 5 1
8092 38 1
8093 34 1
8094 3 1
8095 22 1
8095 24 21
8095 29 1
8095 38 1
8096 31 1
8097 29 1
8098 17 1
8099 10 1
8100 21 28
8100 22 23
8100 28 1
8101 2 2
8101 3 5
8101 14 1
8101 34 7
8102 3 1
8102 38 1
8103 34 1
8104 31 9
8104 33 2
8105 29 17
8105 30 2
8106 31 1
8107 18 1
8107 19 2
8108 15 1
8108 16 1
8108 17 1
8109 2 1
8110 16 1
8111 8 1
8112 5 1
8113 29 1
8114 3 1
8114 7 2
8114 8 1
8114 38 1
8115 7 26
8115 8 51
8115 22 1
8116 29 1
8117 38 1
8118 2 1
8118 29 13
8118 30 2
8119 11 1
8120 24 3
8121 21 1
8122 31 1
8123 3 1
8124 21 1
8124 24 32
8124 26 1
8125 18 1
8126 5 1
8126 24 1
8126 31 51
8126 33 1
8127 11 1
8127 26 1
8128 9 1
8129 2 1
8130 34 1
8131 2 2
8132 3 2
8132 21 1
8133 29 1
8133 30 1
8133 31 1
8134 12 9
8134 14 2
8135 12 1
8135 14 2
8135 21 21
8135 22 14
8136 23 1
8136 24 11
8137 26 2
8138 3 1
8139 4 1
8139 29 1
8140 5 1
8141 19 1
8142 20 1
8143 21 1
8144 3 1
8145 18 1
8145 19 5
8146 3 1
8147 11 1
8147 19 1
8148 5 2
8148 29 1
8149 18 1
8150 3 2
8150 9 1
8150 10 1
8150 12 1
8151 31 1
8152 31 1
8153 18 1
8153 26 22
8153 29 1
8154 5 5
8154 38 5
8155 10 1
8156 34 1
8157 24 1
8158 20 1
8158 29 8
8158 30 2
8159 34 1
8160 19 1
8161 21 1
8162 2 1
8163 31 1
8164 2 2
8164 3 4
8164 34 9
8165 2 1
8165 3 1
8165 24 1
8165 31 1
8165 34 1
8166 2 23
8166 3 25
8166 34 36
8167 22 1
8167 29 16
8168 34 2
8169 24 1
8170 26 1
8171 12 12
8171 14 3
8172 12 1
8172 31 1
8173 2 1
8174 31 1
8175 3 1
8176 29 2
8177 3 3
8178 20 1
8178 21 4
8178 22 2
8179 34 1
8180 26 1
8180 31 1
8180 34 1
8181 12 1
8182 3 3
8182 18 1
8182 19 1
8182 21 1
8182 34 1
8183 26 1
8184 20 1
8185 21 1
8186 12 1
8186 18 1
8187 38 1
8188 4 1
8189 24 1
8190 5 1
8190 31 2
8190 38 1
8191 26 2
8191 29 16
8191 30 2
8191 31 1
8192 31 1
8193 11 6
8194 29 1
8195 29 1
8196 18 9
8196 19 9
8196 20 2
8197 20 1
8197 34 1
8198 1 1
8198 2 4
8198 3 1
8198 34 3
8199 29 1
8200 3 1
8200 29 1
8201 11 1
8201 21 1
8202 20 1
8203 34 1
8204 24 1
8205 15 1
8206 9 1
8207 26 6
8208 2 1
8209 21 1
8210 29 1
8211 22 1
8212 9 8
8212 10 20
8212 11 13
8213 29 1
8213 34 2
8214 26 3
8215 29 1
8216 5 1
8217 29 9
8217 30 1
8218 22 1
8219 31 1
8220 25 1
8220 28 2
8221 5 1
8222 4 2
8222 5 4
8222 31 1
8222 38 9
8223 22 1
8224 4 3
8224 5 10
8224 24 2
8224 29 1
8224 38 17
8225 19 1
8226 4 1
8227 19 1
8228 34 1
8229 5 12
8229 38 20
8230 2 2
8230 3 12
8230 34 16
8231 17 1
8232 38 1
8233 24 1
8234 22 1
8234 38 1
8235 24 2
8236 18 1
8237 9 1
8238 19 1
8238 24 1
8239 1 1
8239 2 4
8239 3 9
8239 34 10
8240 2 1
8240 21 1
8241 34 1
8242 12 3
8243 5 1
8244 1 1
8244 2 16
8244 3 39
8244 34 39
8245 2 1
8245 3 1
8245 8 1
8245 18 1
8245 24 1
8245 31 1
8245 34 2
8245 38 2
8246 21 1
8247 29 11
8247 30 1
8248 34 1
8249 9 1
8250 3 1
8251 34 1
8252 29 1
8253 7 1
8253 18 9
8253 19 10
8254 3 1
8254 5 1
8254 34 2
8255 24 1
8256 3 1
8256 29 6
8256 34 1
8257 31 9
8258 9 1
8258 10 2
8258 11 2
8258 19 1
8259 18 15
8259 19 28
8259 20 6
8260 3 1
8260 15 1
8260 18 1
8260 19 1
8261 31 1
8262 8 1
8262 22 1
8262 24 1
8263 15 2
8263 16 4
8263 17 3
8263 18 54
8263 19 82
8263 20 30
8264 20 2
8264 26 1
8265 12 1
8265 14 1
8265 24 1
8266 34 1
8267 3 1
8267 8 1
8267 10 1
8267 12 1
8267 16 1
8267 29 2
8267 38 2
8268 21 39
8268 22 16
8268 28 1
8269 24 1
8270 1 1
8270 2 4
8270 3 6
8270 34 3
8271 2 13
8271 3 11
8271 34 21
8272 8 1
8273 34 1
8273 38 1
8274 9 1
8275 24 1
8276 21 10
8276 22 11
8276 29 1
8277 19 1
8277 34 1
8278 2 5
8278 3 7
8278 5 1
8278 29 1
8278 34 8
8279 19 3
8279 21 1
8279 22 1
8280 34 1
8281 26 1
8282 21 1
8283 29 1
8284 19 1
8285 28 4
8286 26 8
8287 12 1
8288 18 1
8288 38 1
8289 21 17
8289 22 5
8290 38 1
8291 4 9
8291 5 46
8291 38 50
8292 5 1
8292 15 1
8292 16 1
8292 17 4
8293 5 1
8293 34 1
8293 38 1
8294 9 9
8294 10 31
8294 11 14
8295 34 1
8296 2 1
8297 3 1
8298 31 1
8299 8 1
8300 38 1
8301 3 1
8302 15 13
8302 16 9
8302 17 8
8303 12 1
8303 19 1
8304 5 1
8305 18 1
8306 24 3
8306 34 2
8307 5 1
8308 28 1
8309 34 1
8310 16 2
8311 3 1
8311 34 1
8312 15 39
8312 16 22
8312 17 26
8313 28 1
8314 10 1
8315 1 3
8315 2 4
8315 3 23
8315 23 1
8315 24 11
8315 31 1
8315 34 25
8316 5 1
8316 34 1
8317 5 1
8318 1 1
8318 2 4
8318 3 8
8318 34 8
8318 38 1
8319 21 4
8319 22 1
8319 34 1
8320 21 6
8320 22 11
8320 34 1
8320 38 1
8321 2 1
8322 10 1
8322 20 1
8322 29 1
8323 5 1
8323 23 3
8323 24 31
8323 26 6
8324 17 1
8324 31 1
8325 13 1
8326 22 1
8327 31 1
8328 3 1
8329 38 1
8330 19 1
8330 31 4
8331 23 1
8332 34 1
8333 12 1
8334 3 1
8334 15 1
8335 3 1
8335 21 1
8335 24 6
8335 29 1
8336 34 1
8337 9 1
8338 7 1
8338 8 1
8339 3 1
8339 21 21
8339 22 22
8339 24 1
8340 29 1
8341 2 1
8341 3 3
8341 14 1
8341 34 3
8342 26 2
8343 12 3
8344 34 1
8345 2 6
8345 3 14
8345 34 15
8346 19 1
8346 29 1
8347 2 1
8347 18 6
8347 19 7
8347 20 5
8348 24 1
8349 19 1
8350 24 4
8351 22 1
8352 34 1
8353 4 1
8353 9 7
8353 10 8
8353 11 8
8353 21 1
8354 12 1
8355 18 1
8356 2 7
8356 3 10
8356 34 14
8357 3 1
8357 8 1
8357 24 5
8358 29 2
8359 22 1
8360 11 1
8360 21 1
8360 24 5
8361 3 1
8362 11 1
8363 26 5
8364 29 7
8364 30 1
8364 31 1
8365 21 1
8366 34 1
8367 23 1
8367 24 25
8368 4 1
8369 19 1
8370 29 6
8370 30 2
8372 12 1
8373 7 1
8374 7 10
8374 8 18
8375 31 1
8376 29 1
8377 34 1
8378 31 35
8378 33 1
8379 5 1
8379 19 1
8380 2 1
8381 31 5
8382 34 1
8383 3 1
8383 22 1
8384 3 1
8385 29 1
8386 24 33
8387 2 1
8387 10 1
8387 11 1
8388 15 1
8388 18 1
8389 10 1
8390 1 1
8390 2 18
8390 3 35
8390 31 1
8390 34 36
8391 3 1
8392 24 6
8392 38 1
8393 18 2
8393 19 1
8394 12 1
8395 31 6
8396 38 1
8397 28 2
8398 38 1
8399 34 2
8400 2 1
8401 4 5
8401 5 17
8401 11 1
8401 21 1
8401 24 31
8401 38 9
8402 2 1
8402 18 1
8403 3 1
8403 14 1
8403 18 1
8404 3 1
8405 34 1
8406 5 1
8406 38 1
8407 31 2
8408 4 1
8408 34 1
8409 31 3
8410 2 12
8410 3 34
8410 18 2
8410 34 28
8411 34 1
8412 28 1
8412 29 1
8413 2 1
8413 21 1
8414 31 1
8415 2 1
8416 25 1
8416 26 1
8417 3 1
8417 24 4
8418 22 1
8419 24 2
8420 29 1
8420 31 12
8421 10 1
8421 24 1
8422 12 1
8422 15 8
8422 16 6
8422 17 4
8423 29 4
8424 5 1
8424 31 1
8424 34 1
8425 4 1
8425 21 6
8425 22 4
8425 24 1
8426 29 1
8427 2 1
8428 4 1
8428 38 1
8429 3 1
8430 29 39
8430 30 2
8431 34 1
8432 14 1
8433 2 11
8433 3 32
8433 31 1
8433 34 20
8434 7 1
8434 23 1
8434 24 6
8435 2 5
8435 3 6
8435 30 1
8435 31 2
8435 34 10
8436 34 1
8437 2 1
8438 12 1
8438 14 3
8439 9 9
8439 10 15
8439 11 15
8439 16 1
8440 28 1
8441 34 1
8442 12 1
8443 5 10
8443 38 7
8444 12 9
8444 14 8
8445 11 1
8445 14 1
8445 24 1
8445 29 9
8446 18 1
8446 24 1
8446 26 2
8446 38 1
8447 16 1
8448 34 1
8449 12 1
8450 18 1
8450 24 1
8450 25 1
8450 26 6
8451 18 5
8451 19 17
8451 20 5
8452 18 1
8453 1 1
8453 2 10
8453 3 32
8453 34 38
8454 2 1
8455 5 12
8455 26 1
8455 34 1
8455 38 10
8456 24 3
8456 28 1
8457 20 1
8457 23 2
8457 24 44
8457 34 1
8458 34 1
8459 24 1
8460 3 1
8461 2 1
8461 28 4
8461 34 1
8462 24 1
8463 5 1
8464 4 8
8464 5 31
8464 38 36
8465 31 2
8466 19 1
8466 33 1
8467 22 1
8468 34 1
8469 4 1
8470 29 33
8470 30 1
8471 3 1
8472 3 1
8473 18 1
8473 28 4
8474 31 1
8474 34 1
8475 24 1
8476 3 2
8476 23 1
8476 24 21
8477 34 1
8478 12 2
8478 14 2
8478 18 7
8478 19 10
8478 20 10
8478 21 9
8478 22 12
8478 24 1
8479 11 1
8479 24 1
8480 2 8
8480 3 8
8480 34 8
8481 12 2
8481 14 2
8481 24 1
8482 1 1
8482 2 3
8482 3 8
8482 5 1
8482 34 5
8482 38 1
8483 12 1
8484 1 2
8484 2 8
8484 3 10
8484 29 1
8484 34 34
8485 11 1
8486 1 1
8486 3 2
8486 10 1
8486 34 5
8487 22 1
8488 31 3
8489 2 1
8490 5 1
8491 26 1
8492 15 1
8493 1 2
8493 2 8
8493 3 10
8493 19 1
8493 26 1
8493 28 1
8493 34 15
8494 2 2
8494 3 8
8494 29 1
8494 34 6
8495 12 4
8495 13 1
8495 14 1
8496 31 3
8497 29 1
8498 2 1
8499 31 3
8500 9 1
8500 18 5
8500 19 1
8500 20 2
8500 21 3
8500 22 3
8501 4 1
8501 5 3
8501 24 1
8501 38 2
8502 3 1
8503 18 1
8503 19 1
8504 18 1
8504 24 1
8504 31 6
8505 31 1
8506 5 2
8507 4 1
8507 12 25
8507 14 9
8507 19 1
8508 12 3
8508 14 1
8509 11 1
8510 31 3
8511 14 1
8512 12 1
8513 14 1
8513 17 1
8513 38 2
8514 20 1
8514 22 1
8514 28 1
8515 3 1
8516 24 1
8517 18 6
8517 19 7
8518 29 13
8518 30 2
8519 2 7
8519 3 14
8519 34 10
8519 38 2
8520 2 2
8520 3 6
8520 20 1
8520 29 2
8520 34 4
8521 3 9
8521 18 1
8521 31 1
8521 34 12
8522 31 1
8523 4 1
8523 26 1
8524 4 1
8525 5 1
8525 30 1
8526 22 1
8527 3 1
8528 9 1
8528 11 2
8529 5 1
8529 12 1
8529 14 1
8530 3 1
8530 18 38
8530 19 49
8530 20 12
8531 3 2
8531 4 1
8531 24 1
8532 21 1
8533 2 2
8533 3 12
8533 31 3
8533 34 10
8534 10 1
8535 24 1
8536 3 1
8537 2 8
8537 3 8
8537 29 4
8537 34 5
8538 20 1
8539 2 1
8539 15 1
8540 3 1
8541 1 1
8541 2 5
8541 3 9
8541 34 9
8542 28 1
8543 29 1
8544 5 1
8544 8 1
8544 24 1
8545 18 1
8545 19 4
8545 20 1
8546 19 1
8547 24 1
8548 31 1
8549 19 1
8549 22 1
8550 23 1
8550 24 13
8551 3 1
8551 5 1
8551 7 1
8552 21 1
8553 29 1
8554 5 1
8554 10 2
8554 22 1
8554 29 1
8554 34 1
8555 21 1
8556 23 1
8556 24 15
8556 31 1
8557 14 1
8557 24 1
8558 2 3
8558 3 5
8558 7 1
8558 34 8
8559 12 4
8559 14 1
8559 34 1
8560 3 1
8560 12 1
8561 29 1
8562 4 1
8562 5 16
8562 38 13
8563 19 3
8563 38 1
8564 18 1
8564 25 1
8564 26 10
8565 12 1
8565 13 1
8565 14 2
8566 3 1
8566 26 2
8567 24 25
8568 2 1
8568 24 1
8568 31 1
8568 34 1
8569 3 2
8569 15 1
8569 18 3
8569 19 3
8569 29 1
8570 31 3
8571 3 1
8572 4 2
8572 5 8
8572 38 8
8573 29 12
8573 30 1
8574 2 1
8575 5 1
8575 38 1
8576 11 1
8576 16 1
8577 24 1
8578 19 1
8578 21 1
8579 24 15
8579 38 1
8580 4 1
8580 12 1
8580 19 1
8581 12 4
8581 19 1
8581 20 1
8581 21 1
8582 4 1
8582 5 3
8582 38 1
8583 19 1
8584 29 3
8585 29 1
8586 34 1
8587 34 1
8588 21 1
8588 38 1
8589 34 1
8590 34 1
8591 4 2
8591 5 7
8591 38 2
8592 3 1
8592 19 1
8593 29 1
8594 3 1
8594 34 2
8595 34 1
8596 28 5
8596 31 1
8597 21 1
8598 10 2
8599 31 4
8600 19 1
8601 3 1
8602 26 1
8602 28 2
8603 14 1
8604 10 1
8604 22 1
8604 31 2
8605 11 1
8606 7 1
8607 38 1
8608 29 1
8609 2 1
8609 10 1
8609 27 1
8609 28 2
8610 2 1
8610 4 2
8610 5 6
8610 38 5
8611 12 11
8611 13 2
8611 14 3
8612 18 4
8612 19 5
8613 10 1
8614 5 1
8615 5 1
8616 29 2
8617 29 1
8618 21 17
8618 22 17
8619 34 1
8620 4 6
8620 5 32
8620 38 25
8621 18 36
8621 19 38
8621 20 8
8622 3 1
8622 21 1
8622 24 10
8622 29 10
8622 30 1
8622 31 2
8623 4 2
8623 5 8
8623 38 3
8624 4 2
8624 5 10
8624 29 1
8624 38 9
8625 3 1
8625 38 1
8626 11 1
8626 12 7
8626 13 1
8626 14 8
8627 17 1
8627 26 1
8628 21 1
8629 5 5
8629 38 3
8630 4 1
8631 3 1
8631 4 3
8631 5 12
8631 21 1
8631 38 14
8632 31 1
8633 38 1
8634 1 1
8634 2 6
8634 3 27
8634 19 1
8634 22 1
8634 34 15
8635 24 1
8635 31 6
8635 32 1
8636 18 1
8636 26 3
8636 29 1
8636 30 1
8637 2 1
8638 18 1
8639 24 17
8640 4 1
8640 5 6
8640 15 1
8640 16 2
8640 17 2
8640 21 1
8640 22 1
8640 38 2
8641 2 1
8641 26 3
8642 17 1
8642 31 3
8643 3 1
8643 34 1
8644 38 1
8645 3 1
8646 2 1
8646 34 1
8647 3 1
8648 21 15
8648 22 14
8649 2 12
8649 3 11
8649 34 15
8650 4 3
8650 5 13
8650 9 6
8650 10 42
8650 11 29
8650 38 14
8651 12 2
8651 14 6
8652 24 1
8653 4 1
8653 5 1
8653 34 1
8653 38 1
8654 15 1
8655 3 1
8655 19 1
8656 18 3
8657 29 7
8658 28 2
8659 15 1
8659 28 1
8659 29 1
8660 38 1
8661 1 2
8661 2 10
8661 3 45
8661 20 1
8661 34 51
8662 5 1
8662 31 7
8662 33 1
8663 38 1
8664 3 1
8664 5 1
8665 11 1
8666 12 10
8666 14 7
8667 29 4
8668 3 2
8669 3 1
8670 19 1
8671 34 1
8672 29 5
8673 8 1
8673 9 2
8673 11 1
8674 12 1
8675 24 1
8676 34 1
8677 18 5
8677 19 9
8677 20 3
8678 29 7
8679 29 1
8680 28 1
8681 29 19
8681 30 1
8682 2 17
8682 3 37
8682 34 40
8682 38 1
8683 29 3
8684 2 7
8684 3 18
8684 34 21
8685 2 1
8685 29 29
8685 30 3
8686 2 1
8686 5 4
8686 38 1
8687 19 1
8688 38 1
8689 5 9
8689 34 1
8689 38 4
8690 3 1
8690 28 1
8690 34 1
8691 24 1
8691 29 8
8691 31 4
8692 29 1
8693 34 1
8694 14 1
8694 21 1
8695 24 3
8695 26 2
8696 12 9
8696 14 12
8697 5 1
8698 8 1
8699 21 11
8699 22 8
8700 21 2
8700 22 2
8700 34 2
8701 19 1
8701 31 1
8702 2 12
8702 3 7
8702 26 9
8702 34 12
8703 18 20
8703 19 43
8703 20 17
8704 4 5
8704 5 40
8704 7 18
8704 8 15
8704 38 33
8705 24 16
8705 28 9
8705 34 1
8706 3 1
8707 20 1
8708 3 1
8709 29 4
8710 26 2
8710 31 4
8711 5 1
8712 38 1
8713 38 1
8714 21 1
8715 31 1
8716 12 1
8717 9 5
8717 11 9
8718 18 4
8718 19 6
8718 20 2
8719 14 1
8720 3 1
8721 14 2
8722 30 1
8723 21 1
8724 21 1
8725 24 1
8726 29 17
8726 30 2
8727 4 4
8727 5 10
8727 38 13
8728 18 1
8729 8 3
8730 2 1
8730 4 1
8731 17 1
8732 3 1
8733 5 3
8733 38 1
8734 8 1
8734 21 13
8734 22 13
8735 2 1
8735 3 4
8735 14 1
8735 34 9
8736 31 7
8737 4 4
8737 5 34
8737 34 1
8737 38 37
8738 21 1
8739 22 1
8739 25 1
8739 26 9
8740 29 17
8740 30 1
8741 29 1
8742 21 1
8744 2 1
8744 24 1
8744 28 2
8745 3 1
8745 24 1
8746 18 1
8747 12 1
8747 21 1
8748 19 1
8749 18 1
8750 24 1
8751 18 7
8751 19 15
8751 20 1
8752 5 1
8752 7 10
8752 8 17
8752 21 1
8752 34 1
8753 34 1
8754 10 1
8754 11 2
8754 19 1
8754 38 1
8755 2 1
8755 24 1
8755 31 1
8756 3 1
8756 38 1
8757 9 1
8757 12 3
8757 14 2
8758 24 1
8759 1 1
8759 2 16
8759 3 31
8759 26 3
8759 34 31
8760 2 1
8760 15 17
8760 16 8
8760 17 4
8761 3 1
8762 12 1
8762 19 1
8762 29 4
8763 15 1
8763 16 1
8764 28 1
8765 5 4
8765 38 3
8766 2 1
8766 18 1
8766 19 1
8767 18 1
8767 24 1
8767 29 1
8767 34 1
8768 28 1
8769 24 1
8770 28 8
8771 19 2
8772 34 1
8773 24 12
8774 18 1
8775 19 1
8776 26 1
8777 30 1
8778 18 1
8779 3 1
8779 28 2
8779 31 18
8780 21 1
8781 12 1
8781 14 1
8782 12 1
8783 12 1
8784 4 1
8784 5 3
8784 20 1
8784 38 2
8785 5 1
8786 2 1
8786 3 1
8787 17 1
8788 2 1
8789 1 1
8789 2 1
8789 9 7
8789 10 16
8789 11 8
8790 3 1
8791 5 12
8791 38 7
8792 4 8
8792 5 31
8792 38 35
8793 4 1
8794 5 1
8794 7 1
8794 8 1
8795 20 1
8796 8 1
8796 21 1
8797 4 1
8798 1 1
8798 2 4
8798 3 18
8798 15 1
8798 18 1
8798 34 8
8799 29 1
8800 12 2
8800 14 2
8800 29 1
8801 3 1
8802 18 2
8802 19 2
8803 34 1
8804 34 1
8805 21 3
8805 22 1
8806 3 1
8807 29 6
8807 30 2
8807 34 1
8808 34 1
8809 31 17
8810 29 1
8811 5 1
8811 18 2
8812 15 16
8812 16 13
8812 17 15
8813 21 16
8813 22 9
8814 38 1
8815 2 8
8815 3 23
8815 34 33
8816 3 1
8817 25 2
8817 26 8
8818 24 13
8819 3 1
8820 34 1
8821 24 1
8822 11 1
8823 38 1
8824 11 1
8825 9 5
8825 10 9
8825 11 7
8825 15 13
8825 16 12
8825 17 10
8826 31 1
8827 24 21
8827 29 14
8827 30 1
8827 31 26
8828 3 1
8829 28 1
8830 34 1
8831 19 1
8832 3 1
8832 29 1
8833 1 1
8833 2 8
8833 3 33
8833 34 30
8834 3 1
8835 25 1
8836 34 1
8837 2 1
8838 1 2
8838 2 18
8838 3 28
8838 34 53
8839 5 1
8839 8 1
8839 11 1
8839 29 8
8840 3 1
8840 24 1
8840 30 1
8841 26 1
8842 9 3
8842 10 5
8842 11 4
8843 24 6
8844 2 3
8844 3 5
8844 34 3
8845 2 8
8845 3 28
8845 34 36
8845 38 1
8846 2 1
8847 38 1
8848 7 1
8848 38 1
8849 15 1
8849 17 2
8850 19 1
8851 24 1
8851 29 19
8851 30 2
8852 7 1
8853 18 12
8853 19 23
8853 20 5
8854 7 1
8854 31 1
8855 23 1
8855 24 8
8856 3 1
8857 3 1
8858 8 1
8858 18 1
8858 21 3
8858 22 7
8858 29 12
8858 30 1
8859 25 3
8859 26 14
8860 34 1
8861 3 1
8862 2 2
8862 3 5
8862 4 1
8862 12 3
8862 14 2
8862 26 4
8862 31 2
8862 34 3
8863 4 9
8863 5 13
8863 34 1
8863 38 16
8864 3 1
8865 3 1
8866 1 3
8866 2 14
8866 3 27
8866 29 1
8866 34 25
8867 12 2
8867 13 1
8868 24 1
8869 21 1
8870 7 2
8870 38 1
8871 28 4
8872 38 1
8873 24 1
8874 21 1
8875 20 1
8876 15 1
8877 24 1
8877 28 2
8877 29 1
8877 31 1
8878 19 1
8879 5 1
8880 19 1
8880 31 3
8881 26 1
8881 31 1
8882 4 1
8883 2 1
8884 12 1
8885 5 1
8885 34 1
8886 34 1
8887 26 1
8888 12 13
8888 14 7
8889 3 2
8889 5 1
8889 11 1
8889 24 3
8889 34 1
8889 38 2
8890 2 1
8891 10 1
8891 18 1
8891 24 1
8891 38 1
8892 26 2
8892 34 1
8893 2 1
8894 2 4
8894 3 11
8894 16 1
8894 34 8
8895 2 1
8895 34 1
8896 29 1
8897 26 1
8898 26 1
8898 29 6
8899 28 4
8900 24 1
8900 28 1
8901 8 2
8902 18 11
8902 19 18
8902 20 4
8903 24 9
8904 15 19
8904 16 10
8904 17 7
8904 30 1
8905 28 5
8905 34 1
8906 20 1
8906 29 4
8906 30 1
8907 29 6
8907 30 1
8908 34 1
8909 29 1
8910 31 1
8911 19 1
8912 38 1
8913 26 3
8914 28 2
8915 18 18
8915 19 34
8915 20 4
8916 3 1
8916 9 1
8917 19 1
8918 8 1
8918 18 17
8918 19 32
8918 20 6
8919 9 1
8919 12 5
8919 14 1
8920 7 1
8921 31 1
8922 7 1
8922 10 1
8923 7 1
8923 9 2
8923 10 1
8923 11 2
8923 12 4
8923 14 5
8923 34 1
8924 38 1
8925 38 1
8926 23 1
8926 24 16
8927 24 4
8927 28 1
8928 12 1
8929 22 1
8930 21 1
8930 22 1
8930 31 8
8931 29 1
8932 2 1
8932 28 1
8932 34 1
8933 34 1
8934 21 14
8934 22 8
8934 38 1
8935 2 1
8936 5 1
8937 22 1
8938 1 2
8938 2 15
8938 3 75
8938 34 76
8939 18 1
8940 18 1
8941 17 1
8941 21 6
8941 22 5
8942 1 1
8942 2 5
8942 3 14
8942 34 11
8943 20 1
8943 26 5
8944 24 8
8945 17 1
8946 21 39
8946 22 39
8947 29 5
8947 30 1
8948 38 1
8949 2 1
8950 12 1
8951 19 4
8952 21 1
8952 26 1
8953 5 1
8954 26 1
8955 10 1
8956 21 1
8956 29 4
8956 30 2
8957 38 1
8958 26 1
8959 26 8
8960 29 8
8961 18 1
8961 31 3
8962 24 14
8963 3 1
8964 12 3
8964 14 4
8965 5 1
8965 24 1
8966 22 1
8966 28 6
8967 1 1
8967 2 5
8967 3 10
8967 26 5
8967 34 11
8968 4 3
8968 5 9
8968 38 8
8969 5 1
8969 29 10
8969 30 1
8969 38 1
8970 29 1
8971 24 1
8972 5 1
8973 8 1
8974 18 1
8974 31 1
8975 15 2
8975 17 1
8976 18 1
8977 21 1
8978 29 9
8979 29 1
8980 1 1
8980 2 23
8980 3 28
8980 18 1
8980 34 51
8981 22 1
8982 29 1
8983 24 4
8984 19 1
8985 5 1
8985 19 1
8985 24 5
8985 26 1
8986 9 1
8986 24 2
8986 28 4
8987 5 1
8988 38 1
8989 29 5
8990 31 2
8991 29 3
8992 24 1
8992 28 2
8992 31 1
8993 24 1
8994 24 1
8994 28 1
8994 29 1
8995 10 1
8996 11 1
8996 12 3
8997 12 25
8997 13 2
8997 14 13
8998 29 1
8999 38 1
9000 17 1
9001 29 3
9002 19 1
9003 38 1
9004 1 2
9004 2 19
9004 3 23
9004 24 1
9004 34 28
9005 3 1
9006 3 1
9006 5 1
9006 28 3
9007 31 6
9008 3 1
9008 18 2
9008 24 6
9009 23 3
9009 24 20
9010 31 3
9011 25 1
9011 26 8
9012 7 3
9012 8 5
9013 3 1
9014 24 1
9015 29 17
9015 30 1
9016 12 1
9017 12 1
9018 3 1
9019 2 5
9019 3 16
9019 12 1
9019 31 62
9019 34 31
9020 2 1
9020 3 1
9020 12 4
9020 14 3
9021 31 1
9022 21 14
9022 22 20
9023 31 1
9024 26 1
9025 29 1
9026 3 2
9026 24 1
9027 5 1
9028 9 14
9028 10 26
9028 11 7
9028 29 1
9029 3 1
9030 8 1
9031 19 1
9031 28 6
9032 11 1
9032 19 1
9033 34 1
9034 24 2
9035 24 1
9036 3 1
9037 31 1
9038 34 1
9039 19 1
9040 25 2
9040 26 4
9041 7 1
9042 29 1
9043 15 6
9043 16 5
9043 17 3
9043 38 1
9044 20 1
9044 24 1
9044 38 1
9045 22 2
9047 34 1
9048 26 1
9049 26 6
9049 34 1
9050 9 1
9050 18 1
9051 34 1
9052 24 1
9053 3 1
9054 29 2
9055 12 6
9055 14 10
9056 14 1
9057 3 1
9058 2 4
9058 3 4
9058 34 3
9059 2 9
9059 3 27
9059 7 1
9059 8 1
9059 34 21
9060 4 1
9060 5 8
9060 38 7
9061 29 3
9062 5 3
9062 38 4
9063 1 1
9063 2 3
9063 3 17
9063 28 1
9063 34 12
9064 26 4
9065 17 1
9066 29 3
9067 4 1
9068 38 1
9069 5 1
9070 18 2
9070 19 2
9070 20 1
9071 31 6
9072 15 1
9072 20 1
9073 8 1
9074 4 3
9074 5 26
9074 38 26
9075 3 1
9076 22 1
9077 3 1
9078 24 2
9078 34 1
9079 2 1
9079 18 1
9079 26 3
9080 12 5
9081 34 1
9082 5 1
9082 26 4
9082 38 1
9083 38 1
9084 31 3
9084 34 1
9085 21 16
9085 22 9
9085 29 1
9086 2 2
9086 3 8
9086 34 3
9087 31 1
9088 4 2
9088 5 15
9088 14 1
9088 38 12
9089 14 1
9090 34 1
9091 14 1
9092 2 1
9092 9 1
9092 10 1
9092 18 5
9092 19 4
9092 20 5
9093 24 2
9093 31 8
9094 26 1
9095 31 12
9096 4 1
9096 5 6
9096 38 16
9097 2 1
9098 2 26
9098 3 42
9098 34 49
9099 34 1
9100 12 1
9100 24 9
9100 38 1
9101 29 5
9102 38 1
9103 19 1
9104 10 1
9105 34 1
9106 5 7
9106 18 1
9106 19 6
9106 20 2
9106 38 8
9107 38 1
9108 4 4
9108 5 12
9108 38 12
9109 11 1
9110 2 7
9110 3 4
9110 34 5
9111 24 3
9112 4 6
9112 5 23
9112 18 1
9112 38 31
9113 19 1
9114 38 1
9115 15 1
9115 19 1
9115 22 1
9115 24 2
9115 29 1
9115 38 1
9116 18 1
9117 12 1
9118 22 1
9119 12 1
9119 14 1
9120 3 1
9120 7 24
9120 8 28
9120 34 1
9121 31 8
9122 10 1
9123 5 1
9124 7 2
9124 8 9
9124 12 3
9124 13 1
9124 14 10
9125 9 3
9125 10 5
9125 11 5
9126 2 1
9127 10 1
9128 22 2
9129 29 5
9130 4 1
9130 12 1
9130 24 1
9131 29 1
9132 1 2
9132 2 16
9132 3 41
9132 34 43
9133 28 1
9134 11 1
9134 18 1
9134 34 1
9135 22 1
9135 24 8
9136 3 2
9136 34 1
9137 18 2
9137 19 3
9138 7 1
9139 2 2
9139 3 1
9139 15 1
9139 17 2
9139 21 1
9140 26 10
9141 9 6
9141 10 6
9141 11 2
9142 2 6
9142 3 25
9142 34 34
9143 21 6
9143 22 1
9144 3 1
9144 29 9
9145 7 27
9145 8 22
9146 8 1
9147 31 1
9147 34 1
9148 4 2
9148 5 5
9148 38 8
9149 3 1
9150 12 1
9151 31 1
9152 12 25
9152 14 16
9153 34 1
9154 26 1
9155 3 2
9155 4 2
9155 5 7
9155 19 1
9155 24 1
9155 28 1
9155 38 8
9156 2 2
9156 3 2
9156 34 1
9157 18 4
9157 19 1
9157 20 2
9158 19 1
9158 22 1
9159 25 2
9160 12 6
9160 14 2
9161 4 2
9161 5 3
9161 38 7
9162 3 1
9163 21 1
9164 38 1
9165 5 1
9165 10 1
9166 18 1
9166 38 1
9167 2 1
9167 31 1
9168 3 1
9169 29 19
9169 30 2
9170 31 1
9171 5 1
9172 21 1
9172 22 1
9173 2 7
9173 3 22
9173 34 22
9174 29 15
9175 18 4
9175 19 5
9175 20 1
9176 31 2
9177 9 1
9177 10 1
9177 11 2
9178 21 8
9178 22 5
9178 24 1
9179 24 1
9180 28 8
9181 15 1
9181 16 2
9181 17 2
9182 5 6
9182 38 3
9183 18 1
9184 18 1
9184 19 3
9184 20 1
9185 12 8
9185 14 6
9186 29 1
9187 12 4
9187 14 1
9188 12 3
9189 29 1
9190 22 1
9191 21 1
9192 34 1
9193 3 1
9193 5 1
9193 18 10
9193 19 16
9193 20 2
9194 26 1
9195 26 5
9195 34 1
9196 4 8
9196 5 39
9196 12 9
9196 14 11
9196 29 1
9196 38 44
9197 38 1
9198 5 1
9198 29 1
9199 9 18
9199 10 36
9199 11 17
9200 10 1
9201 9 8
9201 10 9
9201 11 11
9202 34 1
9203 12 2
9204 29 1
9204 31 16
9205 5 1
9205 7 1
9205 24 12
9206 38 1
9207 29 19
9207 30 1
9207 34 1
9208 18 1
9208 28 3
9208 29 1
9209 34 1
9210 29 1
9211 22 1
9211 38 1
9212 24 1
9213 12 36
9213 14 20
9214 18 4
9214 19 8
9214 20 5
9215 19 1
9216 9 1
9217 5 2
9217 38 2
9218 17 1
9219 15 2
9219 16 2
9219 17 4
9220 29 1
9221 38 1
9222 9 4
9222 11 2
9222 19 2
9223 18 1
9224 2 1
9225 38 1
9226 31 1
9227 2 1
9227 4 1
9227 5 4
9227 28 1
9227 38 3
9228 2 12
9228 3 19
9228 24 1
9228 34 20
9229 21 39
9229 22 16
9229 24 1
9229 31 2
9230 18 6
9230 19 20
9230 20 8
9231 31 1
9232 3 1
9233 31 16
9234 26 1
9234 34 1
9235 4 5
9235 5 23
9235 9 1
9235 38 27
9236 18 1
9237 14 1
9238 31 1
9239 2 7
9239 3 21
9239 34 15
9240 4 3
9240 5 30
9240 20 1
9240 38 26
9241 34 1
9242 5 1
9243 12 1
9244 2 1
9245 2 4
9245 3 16
9245 34 12
9246 3 1
9247 34 1
9248 18 1
9249 3 1
9250 24 4
9251 8 1
9252 31 1
9253 9 2
9253 10 13
9253 11 12
9254 19 1
9255 8 1
9256 24 5
9257 8 1
9258 1 1
9258 2 2
9258 3 4
9258 29 1
9258 34 6
9259 15 2
9259 17 2
9260 34 1
9261 34 1
9262 4 1
9262 9 2
9262 10 6
9262 11 4
9262 12 3
9262 14 1
9263 15 1
9263 17 1
9263 24 5
9264 21 1
9265 1 3
9265 2 22
9265 3 16
9265 34 17
9266 21 1
9267 18 10
9267 19 12
9267 20 4
9268 19 1
9269 3 1
9270 2 1
9271 3 1
9271 29 2
9272 24 1
9273 15 25
9273 16 24
9273 17 28
9273 34 1
9274 3 1
9274 34 1
9275 24 1
9275 34 2
9276 31 7
9277 11 1
9278 2 1
9278 3 1
9278 29 2
9279 4 2
9279 5 47
9279 38 49
9280 12 1
9281 26 1
9282 11 1
9283 5 9
9283 38 7
9284 5 1
9285 15 14
9285 16 3
9285 17 7
9286 29 1
9287 3 1
9287 7 1
9287 15 1
9287 24 5
9288 29 1
9288 34 1
9288 38 1
9289 24 1
9290 8 1
9291 3 1
9292 3 1
9292 26 8
9293 19 1
9293 22 1
9294 34 1
9295 1 1
9295 2 44
9295 3 75
9295 24 6
9295 34 97
9296 24 12
9297 18 1
9298 29 1
9299 29 3
9300 3 1
9300 29 3
9301 2 4
9301 3 4
9301 31 7
9301 34 6
9302 17 1
9303 34 1
9304 3 1
9305 18 1
9306 5 1
9307 38 1
9308 9 10
9308 10 19
9308 11 15
9309 3 1
9310 18 1
9310 29 1
9311 21 1
9312 5 1
9313 3 1
9313 17 1
9314 14 1
9314 18 25
9314 19 27
9314 20 9
9315 29 1
9316 31 1
9317 4 3
9317 5 14
9317 38 13
9318 38 1
9319 24 13
9319 29 1
9320 4 1
9321 4 1
9322 4 1
9322 5 1
9322 31 5
9323 22 1
9324 15 7
9324 16 6
9324 17 9
9324 34 1
9325 24 1
9326 8 1
9326 34 1
9327 38 1
9328 1 1
9328 2 7
9328 3 35
9328 34 26
9329 29 3
9330 3 1
9330 34 1
9331 2 1
9332 5 1
9332 9 4
9332 10 7
9332 11 6
9333 2 1
9334 5 1
9334 9 1
9334 10 3
9335 31 2
9336 1 1
9336 2 12
9336 3 18
9336 34 15
9337 3 1
9338 2 1
9338 9 11
9338 10 32
9338 11 13
9338 34 1
9339 2 2
9339 3 5
9339 34 7
9340 3 2
9341 19 1
9341 38 1
9342 9 1
9342 38 1
9343 24 5
9344 1 1
9344 2 26
9344 3 54
9344 8 1
9344 19 1
9344 34 63
9345 26 1
9345 29 3
9346 31 1
9347 24 1
9348 14 2
9348 20 1
9349 2 8
9349 3 12
9349 12 1
9349 34 10
9350 21 1
9351 18 1
9351 19 1
9351 21 1
9351 22 2
9351 38 1
9352 5 2
9352 9 1
9352 12 3
9352 14 2
9353 3 1
9353 26 10
9353 30 1
9354 18 15
9354 19 12
9354 20 10
9354 28 1
9355 20 1
9356 34 1
9357 3 1
9358 12 2
9358 38 1
9359 24 1
9360 17 1
9361 19 1
9362 31 4
9363 24 9
9364 24 1
9365 29 8
9366 3 1
9367 19 1
9368 8 1
9369 20 1
9370 1 2
9370 2 11
9370 3 28
9370 34 20
9371 34 1
9372 38 1
9373 29 13
9374 2 2
9375 2 3
9375 3 4
9375 34 5
9376 1 1
9376 2 17
9376 3 37
9376 18 1
9376 21 1
9376 34 22
9377 24 2
9377 34 1
9378 28 1
9378 29 15
9378 30 1
9379 29 1
9380 29 7
9381 29 1
9382 2 5
9382 3 4
9382 34 2
9383 18 2
9384 5 1
9384 18 1
9384 19 1
9385 31 10
9386 24 1
9387 7 2
9387 8 2
9387 16 1
9387 17 3
9387 29 26
9387 30 2
9388 29 25
9388 30 2
9389 15 1
9390 12 4
9390 14 1
9390 21 22
9390 22 9
9391 26 1
9392 18 13
9392 19 17
9392 20 8
9393 12 13
9393 14 4
9394 28 1
9395 4 2
9395 5 11
9395 38 25
9396 26 1
9397 29 4
9397 30 1
9398 9 3
9398 10 3
9398 11 1
9399 14 1
9400 21 3
9400 22 4
9400 29 18
9401 9 2
9401 10 5
9401 11 1
9402 4 3
9402 5 8
9402 38 16
9403 8 1
9404 2 1
9404 21 1
9405 10 1
9406 18 1
9407 10 1
9408 18 1
9408 19 2
9408 20 1
9409 21 1
9410 5 2
9410 18 8
9410 19 9
9410 20 4
9411 18 1
9411 28 2
9412 7 2
9412 8 3
9413 2 1
9414 22 1
9415 12 1
9415 24 5
9415 26 1
9415 29 3
9416 24 1
9417 38 1
9418 7 1
9419 12 3
9419 14 3
9420 22 1
9421 15 1
9421 29 1
9422 9 2
9422 10 2
9422 11 2
9423 34 1
9424 24 1
9425 2 2
9425 26 2
9425 34 5
9426 2 1
9427 5 1
9428 3 1
9429 3 1
9429 5 1
9430 4 6
9430 5 23
9430 17 1
9430 38 37
9431 23 2
9431 24 14
9432 21 1
9433 22 1
9434 5 1
9434 19 1
9435 24 1
9435 38 1
9436 12 1
9436 14 1
9437 5 1
9438 3 1
9438 7 1
9438 18 1
9439 18 19
9439 19 9
9439 20 4
9440 21 1
9441 21 1
9442 4 7
9442 5 39
9442 38 30
9443 10 1
9443 15 3
9443 16 1
9443 17 1
9444 34 2
9445 5 1
9446 14 1
9447 18 1
9447 21 1
9448 18 1
9449 2 1
9450 2 1
9451 24 12
9451 25 2
9451 26 13
9452 24 1
9452 28 6
9453 3 1
9454 38 1
9455 29 3
9456 7 1
9456 8 1
9457 19 1
9458 21 14
9458 22 8
9459 34 1
9460 11 1
9461 3 1
9461 18 35
9461 19 50
9461 20 18
9461 22 1
9461 30 1
9462 4 1
9463 31 1
9464 11 1
9465 18 1
9466 5 1
9466 34 1
9467 29 1
9468 16 1
9468 29 1
9469 18 9
9469 19 9
9469 20 1
9470 24 5
9470 38 1
9471 19 1
9472 34 1
9473 10 1
9473 21 15
9473 22 12
9473 38 1
9474 4 2
9474 5 1
9474 38 2
9475 5 3
9475 38 4
9476 2 6
9476 3 15
9476 34 25
9477 29 14
9477 30 3
9477 31 1
9478 29 9
9478 30 1
9479 34 1
9480 24 1
9481 5 1
9482 3 1
9483 19 1
9484 29 12
9485 22 2
9486 7 14
9486 8 28
9487 21 15
9487 22 12
9487 26 3
9489 2 9
9489 3 17
9489 34 27
9490 5 1
9490 12 1
9490 14 2
9490 26 6
9491 9 7
9491 10 21
9491 11 8
9492 2 7
9492 3 13
9492 34 9
9493 38 1
9494 4 1
9494 5 5
9494 18 4
9494 19 7
9494 38 9
9495 19 1
9496 31 27
9496 34 1
9497 29 1
9498 5 1
9498 20 1
9499 5 1
9500 18 1
9501 8 1
9502 19 1
9503 5 1
9504 2 1
9504 31 2
9505 17 1
9506 15 1
9506 24 1
9506 29 30
9506 30 5
9507 11 1
9507 21 1
9507 38 2
9508 15 6
9508 16 3
9509 9 1
9509 10 8
9509 11 5
9510 10 1
9510 34 1
9511 31 1
9512 21 1
9513 9 42
9514 22 1
9514 33 1
9515 14 1
9515 20 2
9515 24 1
9515 28 1
9516 14 1
9517 24 2
9518 38 1
9519 8 1
9520 29 1
9522 34 1
9523 18 1
9523 28 9
9524 9 1
9525 38 1
9526 17 1
9527 24 2
9528 12 17
9528 14 12
9529 26 2
9529 38 1
9530 38 1
9531 29 27
9531 30 2
9532 9 9
9532 10 32
9532 11 11
9533 21 1
9534 5 5
9534 38 4
9535 12 1
9536 2 1
9537 34 1
9538 10 1
9539 14 4
9539 19 9
9539 20 3
9539 21 3
9539 22 3
9539 29 1
9539 34 1
9540 20 1
9541 31 1
9542 9 1
9543 9 17
9543 10 31
9543 12 8
9543 14 6
9544 38 1
9545 3 1
9545 20 1
9545 24 1
9545 29 1
9545 31 3
9546 28 1
9547 5 1
9548 3 1
9549 3 1
9550 19 1
9551 2 2
9551 3 2
9551 5 1
9551 34 2
9552 7 4
9552 8 8
9553 29 1
9554 34 1
9555 8 1
9556 24 1
9557 4 3
9557 5 15
9557 38 14
9558 14 1
9559 12 1
9559 29 1
9560 21 1
9560 22 1
9561 21 1
9562 28 1
9563 15 1
9563 24 26
9564 24 2
9565 3 1
9566 12 16
9566 13 1
9566 14 5
9566 24 1
9567 18 1
9568 3 1
9568 14 1
9569 29 9
9569 30 1
9570 22 1
9571 19 1
9572 8 1
9573 18 1
9574 4 1
9574 5 1
9574 29 7
9575 8 1
9575 26 1
9576 28 2
9577 18 1
9578 26 5
9579 3 1
9579 7 1
9579 15 1
9579 23 1
9579 24 1
9579 38 2
9580 14 1
9581 14 1
9581 34 1
9582 29 1
9583 2 10
9583 3 8
9583 26 2
9583 31 5
9583 34 14
9584 2 1
9585 19 1
9585 24 5
9586 12 1
9587 29 6
9588 2 1
9589 19 1
9590 5 1
9591 34 1
9592 9 1
9592 10 3
9592 11 3
9592 34 1
9593 31 1
9594 31 3
9594 38 1
9595 12 9
9595 14 5
9595 34 1
9596 38 1
9597 5 1
9598 7 4
9598 8 6
9598 29 1
9599 5 9
9599 38 2
9600 34 1
9601 28 2
9602 12 5
9602 14 14
9603 26 1
9604 18 2
9604 19 9
9604 20 3
9605 31 2
9606 9 13
9606 10 37
9606 11 12
9606 28 1
9607 5 1
9608 4 11
9608 5 55
9608 10 1
9608 24 1
9608 38 52
9609 24 1
9610 34 1
9611 28 4
9612 2 1
9613 38 1
9614 34 1
9615 19 1
9616 3 1
9617 10 1
9618 4 1
9619 29 4
9620 24 1
9621 7 1
9622 8 2
9622 29 1
9622 31 1
9623 1 1
9623 2 2
9623 3 2
9623 31 1
9623 34 6
9624 4 4
9624 5 10
9624 21 28
9624 22 23
9624 38 19
9625 3 1
9626 2 1
9627 2 1
9628 2 1
9628 21 1
9629 12 15
9629 14 14
9630 34 1
9631 12 9
9631 14 8
9632 17 1
9633 5 1
9633 10 1
9633 29 5
9634 12 9
9634 14 4
9635 26 3
9636 2 2
9636 3 8
9636 34 9
9637 21 1
9638 38 1
9639 12 2
9640 5 1
9640 19 2
9640 34 1
9641 18 1
9642 24 3
9643 29 1
9644 15 2
9644 17 1
9645 22 1
9646 8 1
9647 3 9
9647 17 1
9647 28 2
9647 34 6
9648 5 1
9649 18 1
9650 31 1
9651 3 1
9651 19 1
9651 34 1
9652 21 1
9653 28 2
9654 19 1
9655 5 1
9656 7 1
9656 8 2
9656 29 1
9657 5 1
9657 24 1
9658 1 1
9658 2 2
9658 3 2
9658 29 13
9658 34 4
9659 3 1
9660 4 1
9661 2 1
9662 38 1
9663 22 1
9664 28 1
9665 29 1
9666 9 10
9666 10 19
9666 11 17
9667 4 1
9668 4 3
9668 5 15
9668 38 15
9669 21 1
9670 29 11
9670 30 1
9671 26 1
9671 29 9
9671 30 1
9672 8 1
9672 21 1
9673 34 1
9674 3 2
9674 7 2
9674 8 2
9674 21 8
9674 22 20
9674 24 1
9674 31 1
9674 38 1
9675 7 1
9676 28 1
9677 3 1
9677 18 1
9677 24 5
9678 3 1
9678 17 1
9678 19 1
9679 2 2
9679 34 3
9680 25 2
9680 26 9
9680 34 1
9681 12 3
9681 14 1
9682 38 1
9683 31 3
9684 2 1
9684 9 1
9684 24 3
9685 21 22
9685 22 11
9686 21 1
9687 21 1
9688 5 1
9688 18 4
9688 19 7
9688 20 3
9688 24 29
9688 34 1
9689 15 1
9690 15 4
9691 27 1
9691 28 2
9692 5 1
9693 8 1
9693 26 1
9693 29 1
9694 10 1
9695 5 1
9696 30 1
9697 20 3
9697 25 1
9697 26 5
9698 18 1
9698 29 1
9699 38 2
9700 9 11
9700 10 24
9700 11 12
9701 38 1
9702 5 1
9702 29 1
9703 21 1
9704 9 1
9705 3 1
9705 19 1
9705 28 8
9706 34 1
9707 7 7
9707 8 6
9708 5 1
9709 38 1
9710 3 1
9711 11 1
9711 28 1
9712 18 10
9712 19 28
9712 20 10
9713 38 1
9714 34 1
9715 19 1
9716 4 1
9716 5 2
9716 38 3
9717 29 18
9717 30 3
9718 2 4
9718 3 10
9718 34 14
9719 19 1
9720 21 1
9721 38 1
9722 19 1
9723 38 1
9724 29 1
9725 4 1
9726 1 1
9726 2 5
9726 3 18
9726 11 1
9726 34 16
9727 21 1
9728 31 4
9729 24 4
9729 33 1
9730 38 1
9731 24 4
9732 24 1
9733 5 1
9734 3 1
9734 5 3
9734 38 1
9735 3 1
9736 5 1
9737 31 6
9738 2 1
9738 34 2
9739 12 19
9739 13 1
9739 14 15
9740 3 1
9741 21 1
9742 31 2
9743 11 1
9744 29 1
9745 1 1
9745 2 15
9745 3 41
9745 5 1
9745 34 30
9745 38 1
9746 34 1
9747 31 1
9748 2 5
9748 3 1
9748 29 1
9748 34 7
9749 9 1
9749 24 3
9750 3 1
9750 24 1
9751 19 1
9752 2 17
9752 3 49
9752 12 1
9752 29 7
9752 34 46
9753 18 1
9754 2 1
9754 3 5
9754 34 8
9755 7 1
9756 4 14
9756 5 86
9756 38 89
9757 4 1
9758 17 1
9759 9 2
9759 11 1
9759 19 1
9760 7 3
9761 2 5
9761 3 10
9761 24 4
9761 31 2
9761 34 6
9762 29 2
9763 29 6
9764 3 1
9764 15 1
9764 17 1
9765 24 1
9766 18 2
9766 19 3
9766 20 1
9767 2 2
9767 3 3
9767 8 1
9767 10 1
9767 19 1
9767 21 1
9767 24 2
9767 26 1
9767 28 2
9767 31 3
9767 38 1
9768 4 2
9768 5 26
9768 20 1
9768 26 1
9768 38 25
9769 38 1
9770 8 1
9770 21 10
9770 22 2
9771 18 1
9772 5 1
9772 34 1
9773 3 1
9773 24 1
9773 34 1
9774 11 1
9774 24 4
9775 12 1
9775 19 1
9775 38 1
9776 2 19
9776 3 20
9776 5 1
9776 31 2
9776 34 20
9777 10 1
9777 24 1
9777 28 8
9778 26 11
9778 38 2
9779 5 1
9779 14 1
9780 26 1
9781 24 4
9782 34 1
9783 12 2
9784 22 1
9784 26 2
9784 29 4
9784 30 1
9785 26 1
9786 2 1
9786 3 1
9786 18 12
9786 19 14
9786 20 2
9786 24 7
9786 34 2
9787 2 4
9787 3 4
9787 34 6
9788 2 3
9788 3 7
9788 24 1
9788 29 15
9788 30 1
9788 34 8
9789 21 1
9790 17 1
9791 19 1
9792 31 8
9793 4 1
9794 4 1
9794 21 1
9795 24 8
9795 29 11
9795 30 2
9796 31 2
9797 25 3
9797 26 14
9798 3 1
9799 24 1
9800 28 1
9801 26 2
9802 29 18
9803 23 1
9803 24 16
9804 2 1
9805 18 3
9805 19 2
9806 18 1
9807 19 1
9808 14 1
9809 12 3
9809 14 1
9810 34 1
9811 21 1
9812 34 1
9813 3 1
9814 3 1
9815 5 1
9816 19 1
9817 24 15
9818 2 1
9818 3 4
9818 34 7
9819 24 3
9820 29 1
9821 4 4
9821 5 10
9821 38 14
9822 5 1
9823 5 1
9823 7 4
9823 8 16
9824 38 1
9825 12 22
9825 13 1
9825 14 13
9825 38 1
9826 34 1
9827 21 25
9827 22 20
9827 34 1
9828 3 1
9828 12 1
9829 25 1
9829 26 8
9830 5 1
9830 11 2
9830 20 1
9830 38 1
9831 21 42
9831 22 31
9832 3 1
9833 21 1
9834 19 1
9834 24 16
9835 15 1
9835 19 1
9835 31 1
9836 29 1
9837 26 1
9838 21 3
9838 22 2
9838 29 1
9839 3 1
9840 38 1
9841 8 1
9841 22 1
9841 34 2
9842 21 1
9842 29 1
9843 29 1
9844 26 5
9845 21 9
9845 22 12
9846 31 1
9847 21 11
9847 22 4
9848 34 1
9849 3 1
9850 7 5
9850 8 9
9851 29 5
9852 5 1
9852 21 1
9852 34 1
9853 34 1
9854 3 2
9854 21 1
9854 25 1
9855 14 1
9855 31 1
9856 29 1
9857 34 1
9858 29 5
9858 34 1
9859 5 1
9859 21 8
9859 22 11
9860 19 1
9861 3 1
9861 10 1
9862 34 1
9863 2 1
9864 11 1
9865 26 3
9866 2 1
9867 16 1
9868 28 1
9869 19 1
9870 11 1
9871 2 1
9872 2 1
9872 34 1
9873 8 3
9873 9 3
9873 10 4
9873 11 1
9873 34 1
9874 34 1
9875 38 1
9876 2 1
9876 21 11
9876 22 7
9877 5 1
9878 20 1
9878 30 1
9879 7 1
9879 8 1
9880 19 2
9881 29 24
9882 34 1
9883 5 9
9883 38 7
9884 8 1
9885 22 1
9886 9 2
9886 10 1
9886 11 2
9886 12 1
9886 14 2
9887 5 1
9887 24 19
9887 34 1
9888 19 1
9889 18 1
9889 19 4
9889 20 1
9890 29 7
9891 7 8
9891 8 32
9892 2 1
9893 38 1
9894 28 3
9894 29 2
9894 30 1
9895 3 1
9896 29 1
9897 2 1
9898 5 1
9898 31 4
9899 3 1
9900 24 1
9901 34 1
9902 14 1
9903 9 1
9903 10 2
9903 11 2
9904 29 21
9904 30 1
9905 2 1
9905 3 8
9905 17 1
9905 29 14
9905 34 8
9906 5 1
9906 18 11
9906 19 17
9906 20 7
9907 2 1
9908 7 1
9908 24 7
9909 34 1
9910 24 1
9910 29 1
9911 5 1
9911 10 1
9911 34 1
9912 19 1
9913 34 1
9914 8 1
9915 2 1
9915 5 1
9915 25 2
9915 26 2
9915 38 1
9916 29 1
9917 29 13
9918 10 1
9918 29 9
9919 29 1
9920 24 3
9921 24 3
9922 5 12
9922 11 2
9922 34 1
9922 38 5
9923 8 1
9924 2 1
9924 29 11
9924 34 1
9925 11 1
9926 21 1
9926 22 1
9927 3 1
9927 12 1
9927 18 1
9927 34 2
9928 4 8
9928 5 42
9928 38 17
9929 34 1
9930 5 1
9931 19 15
9931 20 5
9932 29 3
9932 30 1
9933 24 1
9934 11 1
9935 21 13
9935 22 9
9935 24 1
9935 31 7
9935 34 1
9935 38 1
9936 11 1
9937 5 1
9937 34 1
9938 34 1
9939 3 1
9940 22 1
9941 38 1
9942 21 13
9942 22 10
9943 3 1
9944 34 1
9945 12 2
9945 34 1
9946 25 3
9946 26 13
9946 31 3
9947 2 1
9947 3 2
9947 4 2
9947 5 7
9947 34 5
9947 38 13
9948 24 6
9948 29 9
9948 30 1
9948 31 2
9949 28 1
9950 15 1
9951 5 1
9951 24 1
9952 11 1
9953 38 1
9954 24 8
9954 34 1
9955 31 5
9956 4 1
9956 5 7
9956 38 17
9957 5 1
9957 38 1
9958 15 1
9958 38 1
9959 21 1
9959 38 1
9960 19 1
9961 24 1
9962 29 1
9963 29 7
9964 12 1
9964 34 1
9965 4 4
9965 5 21
9965 24 1
9965 31 1
9965 38 29
9966 5 1
9966 21 9
9966 22 2
9966 34 1
9966 38 1
9967 9 41
9967 10 68
9967 11 44
9968 10 2
9969 25 1
9969 26 3
9970 2 1
9971 19 1
9972 24 1
9973 31 1
9974 9 1
9974 31 19
9975 5 1
9976 38 1
9977 2 1
9978 18 1
9979 31 18
9980 19 1
9981 38 1
9982 1 1
9982 2 8
9982 3 7
9982 29 1
9982 34 5
9983 3 1
9983 34 1
9984 19 1
9984 21 1
9985 24 1
9986 19 1
9987 2 1
9987 3 1
9987 34 3
9988 1 1
9988 2 14
9988 3 24
9988 34 26
9989 12 27
9989 13 1
9989 14 8
9989 19 1
9990 29 10
9990 30 2
9991 18 1
9992 2 1
9993 24 1
9994 4 3
9994 5 26
9994 38 14
9995 9 5
9995 10 8
9996 31 1
9997 4 1
9997 5 6
9997 38 9
9998 24 1
9999 4 2
9999 5 1
9999 38 1
10000 29 2
10001 3 5
10001 34 3
10002 2 8
10002 3 12
10002 21 1
10002 34 6
10003 10 1
10004 21 13
10004 22 8
10004 24 1
10005 19 1
10006 34 1
10007 28 1
10008 11 1
10009 10 1
10009 17 1
10009 34 1
10010 19 1
10011 31 7
10012 1 1
10012 2 9
10012 3 19
10012 20 1
10012 34 19
10013 34 1
10014 26 1
10014 34 1
10015 2 1
10015 5 2
10015 38 5
10016 2 2
10016 3 10
10016 34 14
10017 26 1
10017 29 3
10018 16 1
10018 21 1
10018 22 1
10019 9 15
10019 10 23
10019 11 24
10020 5 6
10020 38 6
10021 9 1
10021 10 1
10021 11 2
10022 2 3
10022 3 2
10022 14 1
10022 34 3
10023 1 1
10023 2 13
10023 3 24
10023 34 24
10024 3 1
10024 5 1
10025 5 1
10025 24 1
10025 31 11
10025 38 1
10026 11 3
10027 4 1
10027 5 24
10027 15 1
10027 38 26
10028 16 1
10029 34 1
10030 3 1
10031 34 1
10032 3 1
10033 29 13
10033 30 4
10034 2 1
10034 38 1
10035 14 2
10035 24 1
10036 20 1
10037 12 9
10037 14 6
10038 18 26
10038 19 16
10038 20 13
10038 38 1
10039 25 2
10039 26 14
10040 29 1
10041 5 1
10041 38 2
10042 29 1
10042 34 1
10043 18 1
10044 31 2
10045 24 1
10046 3 1
10047 29 2
10047 30 1
10048 38 1
10049 3 1
10049 26 1
10049 34 1
10050 12 10
10050 14 5
10051 4 2
10051 38 5
10052 3 1
10052 34 1
10053 4 1
10053 5 2
10053 38 1
10054 18 1
10054 19 2
10055 38 1
10056 10 1
10057 38 1
10058 5 1
10059 2 3
10059 3 8
10059 5 1
10059 34 11
10060 4 4
10060 5 19
10060 38 32
10061 4 1
10062 7 1
10063 9 2
10063 11 3
10064 34 1
10065 12 2
10066 19 1
10066 31 3
10067 3 1
10068 3 1
10069 2 9
10069 3 13
10069 34 19
10070 18 1
10071 16 1
10071 29 1
10072 1 1
10072 2 27
10072 3 48
10072 34 64
10073 3 1
10073 21 1
10073 34 1
10074 5 6
10074 22 1
10074 38 9
10075 9 1
10076 3 1
10076 9 1
10076 24 13
10076 26 4
10077 31 3
10078 29 1
10079 21 1
10080 4 1
10081 3 1
10081 18 7
10081 19 10
10081 20 6
10081 24 1
10082 5 1
10083 34 1
10084 5 1
10085 19 1
10086 4 1
10086 5 10
10086 38 16
10087 29 1
10087 34 1
10088 21 1
10089 28 11
10090 19 1
10091 29 14
10092 29 1
10093 14 1
10093 29 1
10094 24 2
10095 18 18
10095 19 26
10095 20 5
10096 2 1
10097 15 1
10097 24 5
10098 2 1
10099 21 1
10099 29 1
10099 31 3
10100 24 1
10101 2 1
10101 3 2
10101 34 5
10102 15 1
10103 21 1
10104 34 1
10105 26 1
10106 4 4
10106 5 20
10106 38 21
10107 3 1
10107 14 1
10107 15 1
10108 2 2
10108 3 10
10108 34 5
10109 5 1
10110 4 1
10111 18 1
10112 28 3
10113 3 1
10114 2 1
10115 1 2
10115 2 12
10115 3 28
10115 34 34
10115 38 1
10116 3 1
10116 12 1
10117 29 1
10118 18 2
10118 19 8
10118 20 1
10119 9 3
10119 10 1
10120 28 1
10121 11 1
10122 19 1
10123 26 3
10124 12 13
10124 13 1
10124 14 5
10125 2 1
10126 9 1
10127 15 1
10128 5 1
10129 5 1
10129 31 9
10129 32 1
10129 38 1
10130 31 1
10131 9 2
10131 11 1
10131 12 1
10131 20 1
10131 28 1
10132 7 1
10133 2 2
10133 3 3
10133 34 3
10134 21 2
10134 22 2
10135 22 1
10136 5 1
10137 19 1
10138 2 1
10139 38 1
10140 9 23
10140 10 30
10140 11 24
10141 17 1
10141 28 4
10142 3 1
10142 24 34
10143 12 9
10143 14 6
10143 31 1
10144 24 1
10144 26 1
10145 2 1
10146 4 1
10147 34 1
10148 29 1
10149 12 2
10149 14 2
10149 38 1
10150 34 1
10151 31 1
10152 21 3
10152 22 1
10152 24 1
10153 26 1
10154 24 5
10154 28 1
10155 10 1
10156 34 1
10157 34 1
10158 19 1
10159 24 10
10160 19 1
10160 22 2
10161 24 2
10162 11 1
10162 24 15
10163 18 1
10163 19 3
10163 20 2
10164 3 1
10164 31 1
10165 21 38
10165 22 36
10166 2 1
10167 9 1
10167 18 1
10168 18 15
10168 19 15
10168 20 5
10169 26 1
10170 34 1
10171 3 1
10171 29 2
10172 34 1
10173 18 1
10173 19 1
10174 31 2
10174 34 1
10175 24 1
10176 24 8
10177 21 13
10177 22 11
10177 24 1
10178 12 1
10178 24 2
10179 18 1
10180 29 1
10181 10 1
10182 34 1
10183 18 3
10183 19 1
10183 20 2
10184 29 1
10185 24 1
10186 34 1
10187 18 1
10187 24 1
10187 29 9
10187 30 1
10187 38 1
10188 25 1
10188 26 7
10189 18 1
10190 3 1
10191 23 1
10191 24 14
10192 19 1
10192 29 1
10192 30 1
10193 2 1
10193 22 1
10193 29 5
10194 34 1
10195 5 1
10196 29 1
10197 12 14
10197 14 11
10197 19 1
10197 29 1
10197 31 4
10198 21 1
10198 34 1
10199 18 1
10199 24 15
10199 29 4
10199 30 1
10200 2 1
10201 15 1
10201 22 2
10201 28 8
10202 3 1
10202 18 8
10202 19 12
10202 20 2
10202 31 1
10203 34 1
10204 21 1
10205 12 1
10205 24 8
10206 21 1
10207 3 1
10208 12 1
10209 21 1
10210 21 1
10210 24 4
10211 26 1
10212 38 1
10213 14 1
10213 16 1
10213 18 12
10213 19 15
10213 20 6
10214 21 1
10215 21 1
10216 38 1
10217 29 4
10218 2 2
10218 3 2
10218 24 1
10218 29 7
10218 30 1
10218 34 2
10219 8 1
10219 14 1
10219 21 1
10219 22 1
10220 21 1
10221 14 1
10221 20 1
10221 21 2
10221 22 2
10222 26 1
10223 38 1
10224 29 3
10225 21 2
10225 22 5
10226 3 1
10226 12 1
10227 28 1
10228 26 1
10228 34 1
10229 22 1
10230 7 16
10230 8 27
10230 19 1
10231 34 1
10232 34 1
10233 8 1
10234 3 1
10235 1 1
10235 2 15
10235 3 15
10235 34 18
10236 31 1
10237 5 1
10238 4 2
10238 5 5
10238 38 5
10239 2 25
10239 3 24
10239 24 12
10239 34 36
10240 34 1
10241 1 2
10241 2 16
10241 3 32
10241 24 10
10241 31 1
10241 34 30
10242 2 1
10243 29 15
10243 30 1
10244 34 1
10245 38 1
10246 9 2
10246 10 8
10246 11 4
10247 24 1
10248 22 1
10249 9 1
10250 11 1
10251 29 1
10251 31 3
10252 9 1
10253 8 1
10254 7 1
10255 24 1
10256 19 1
10257 18 1
10257 19 4
10258 21 1
10258 22 1
10259 31 1
10260 22 1
10261 10 1
10262 18 1
10263 14 1
10264 24 1
10265 38 1
10266 31 5
10267 9 1
10268 11 1
10269 24 2
10270 26 4
10271 9 2
10271 10 1
10271 11 2
10271 18 2
10271 19 2
10271 20 1
10272 2 1
10273 2 1
10274 34 1
10275 31 29
10276 15 1
10276 28 2
10277 8 1
10278 2 1
10279 8 1
10280 12 2
10281 29 1
10282 31 1
10283 11 1
10283 38 1
10284 26 1
10285 9 2
10285 10 8
10285 11 4
10286 8 1
10287 4 2
10287 5 15
10287 29 17
10287 30 1
10287 38 15
10288 29 1
10289 4 1
10289 24 1
10290 18 1
10290 34 1
10291 12 26
10291 13 1
10291 14 15
10292 9 15
10292 10 27
10292 11 22
10293 1 1
10293 2 9
10293 3 16
10293 34 12
10294 29 5
10295 28 1
10296 34 1
10297 11 1
10298 3 1
10299 10 1
10300 8 1
10301 2 1
10302 4 5
10302 5 23
10302 38 33
10303 28 2
10304 3 1
10304 16 1
10305 20 1
10306 5 1
10306 19 1
10306 21 1
10306 38 1
10307 24 14
10307 29 1
10308 8 1
10309 2 1
10309 3 8
10309 34 6
10310 21 1
10310 29 1
10311 29 12
10312 9 1
10313 16 1
10314 2 1
10315 31 1
10316 16 1
10317 9 1
10317 10 4
10317 11 5
10318 38 1
10319 4 1
10319 8 2
10320 21 1
10321 24 7
10322 19 1
10323 11 1
10324 29 1
10325 26 1
10326 22 1
10327 3 1
10328 7 13
10328 8 18
10328 11 1
10329 2 1
10330 29 15
10331 2 1
10332 19 1
10332 28 5
10332 29 1
10332 34 1
10333 24 6
10334 2 2
10334 3 7
10334 24 1
10334 34 3
10335 16 1
10335 22 1
10336 12 14
10336 13 3
10336 14 16
10337 5 1
10338 5 1
10339 8 2
10340 31 30
10340 33 1
10341 34 1
10342 4 1
10343 4 3
10343 5 6
10343 38 6
10344 8 1
10345 21 1
10345 25 1
10345 26 14
10346 30 1
10347 2 1
10348 28 1
10349 5 17
10349 38 11
10350 22 1
10351 2 1
10351 12 1
10352 3 1
10352 38 1
10353 2 1
10353 24 1
10354 1 2
10354 2 33
10354 3 73
10354 5 1
10354 34 52
10355 2 1
10356 4 5
10356 5 28
10356 38 52
10357 7 1
10358 4 1
10359 20 1
10361 4 1
10361 28 1
10362 5 7
10362 18 10
10362 19 10
10362 20 6
10362 38 7
10363 38 1
10364 3 1
10365 3 1
10366 34 1
10367 29 1
10368 25 2
10368 26 4
10369 34 1
10370 9 5
10370 10 7
10370 11 2
10371 9 1
10372 26 4
10373 18 13
10373 19 11
10373 20 13
10373 21 1
10373 22 2
10374 34 1
10375 25 1
10375 26 5
10376 11 1
10377 29 1
10378 29 1
10379 12 1
10379 14 1
10379 15 24
10379 16 5
10379 17 14
10380 24 1
10381 3 1
10381 18 13
10381 19 23
10381 20 11
10382 14 1
10383 24 3
10384 21 9
10384 22 8
10385 24 1
10386 3 1
10387 28 3
10387 29 1
10388 18 1
10388 24 1
10389 29 2
10390 2 1
10390 5 1
10390 7 1
10390 24 1
10390 29 1
10390 31 4
10390 38 2
10391 5 1
10392 1 1
10392 2 5
10392 3 36
10392 34 31
10393 24 1
10394 29 2
10395 29 2
10395 31 2
10396 29 1
10397 18 1
10397 22 1
10398 38 1
10399 19 1
10400 4 11
10400 5 48
10400 38 60
10401 23 1
10401 24 16
10401 29 16
10401 30 3
10402 3 1
10403 23 1
10404 19 1
10405 5 1
10405 38 5
10406 5 1
10407 2 5
10407 3 9
10407 12 1
10407 20 1
10407 34 10
10408 5 1
10408 29 12
10408 30 1
10409 34 1
10410 28 1
10410 34 1
10411 22 1
10411 38 1
10412 15 1
10413 34 1
10414 34 1
10415 26 2
10416 34 1
10417 26 1
10418 1 1
10418 29 26
10418 30 1
10419 5 1
10420 29 2
10421 2 8
10421 3 15
10421 24 1
10421 34 9
10422 2 5
10422 3 12
10422 18 1
10422 31 6
10422 34 15
10423 24 1
10423 28 6
10424 38 1
10425 3 1
10425 18 3
10425 19 8
10425 20 4
10426 18 2
10427 2 4
10427 3 4
10427 31 3
10427 34 8
10428 5 1
10429 34 1
10430 34 1
10432 11 1
10432 23 1
10432 24 21
10432 28 6
10433 15 6
10433 16 4
10433 17 3
10433 26 2
10434 4 5
10434 5 16
10434 38 20
10435 9 1
10435 26 1
10436 29 1
10437 24 8
10438 34 1
10439 2 1
10440 2 3
10440 3 12
10440 34 7
10441 19 1
10442 4 1
10443 3 1
10444 3 1
10445 7 9
10445 8 19
10445 34 1
10446 31 2
10447 10 1
10447 21 1
10448 9 1
10448 10 2
10448 11 1
10449 2 6
10449 3 11
10449 34 10
10450 14 1
10450 34 1
10451 5 1
10452 29 8
10452 30 1
10452 38 1
10453 7 16
10453 8 32
10454 12 1
10455 24 1
10456 24 1
10457 2 24
10457 3 32
10457 34 38
10458 8 1
10459 7 5
10459 8 4
10460 1 1
10460 2 3
10460 3 12
10460 10 1
10460 34 19
10461 29 19
10461 30 1
10462 5 1
10463 19 1
10464 38 1
10465 9 14
10465 10 26
10465 11 25
10465 29 1
10466 29 2
10467 2 1
10467 3 1
10467 28 1
10468 5 1
10468 31 1
10469 5 11
10469 12 6
10469 14 3
10469 38 16
10470 3 1
10470 26 1
10470 31 13
10471 24 5
10472 8 1
10473 31 4
10474 3 1
10474 21 18
10474 22 6
10475 2 1
10476 21 1
10476 24 1
10477 29 16
10477 30 1
10478 34 1
10479 11 1
10479 31 10
10480 38 1
10481 34 1
10482 22 1
10482 28 3
10483 26 1
10483 29 1
10483 30 1
10484 28 1
10485 14 1
10485 24 23
10486 31 1
10487 12 1
10488 3 1
10488 20 1
10488 26 3
10488 38 1
10489 25 1
10489 26 9
10489 28 1
10489 31 4
10490 38 1
10491 31 6
10491 38 1
10492 34 1
10493 5 1
10493 24 1
10493 29 11
10493 30 1
10493 34 1
10494 24 1
10495 3 1
10495 12 12
10495 13 1
10495 14 4
10496 26 1
10496 31 1
10496 34 1
10497 2 1
10498 3 1
10498 15 1
10498 29 4
10499 3 1
10499 19 1
10499 24 1
10500 12 44
10500 14 25
10501 2 1
10501 3 2
10501 5 1
10501 9 1
10501 17 1
10501 34 2
10502 15 1
10503 29 5
10504 24 1
10504 26 1
10504 34 1
10505 3 1
10506 18 1
10506 22 1
10506 26 1
10507 18 1
10507 19 1
10507 20 1
10507 21 1
10508 2 8
10508 3 8
10508 5 1
10508 22 1
10508 24 1
10508 34 7
10509 29 1
10510 2 1
10510 18 1
10510 34 1
10511 12 3
10511 15 4
10511 16 1
10511 17 2
10511 21 1
10512 1 1
10513 19 1
10514 20 1
10514 24 1
10515 18 1
10516 29 1
10517 12 5
10517 14 1
10517 38 1
10518 31 2
10519 5 1
10519 21 9
10519 22 9
10519 34 1
10520 34 1
10521 1 2
10521 2 48
10521 3 81
10521 24 2
10521 34 84
10522 18 14
10522 19 22
10522 20 4
10522 38 1
10523 18 1
10524 14 1
10524 15 1
10525 3 1
10525 10 1
10525 23 1
10525 24 1
10525 29 2
10526 19 1
10527 5 9
10527 34 1
10527 38 18
10528 34 1
10529 24 1
10530 1 1
10530 2 23
10530 3 53
10530 34 42
10530 38 1
10531 21 1
10532 34 1
10533 3 1
10533 31 1
10534 24 28
10535 3 1
10536 34 1
10537 25 2
10537 26 3
10538 24 1
10539 34 1
10540 24 1
10541 2 7
10541 3 22
10541 34 24
10541 38 1
10542 5 1
10542 15 1
10543 19 1
10544 19 1
10544 29 11
10544 30 3
10545 5 1
10546 21 1
10547 21 1
10548 21 1
10549 10 1
10550 34 1
10551 19 1
10551 21 1
10552 5 1
10553 29 10
10554 3 1
10554 25 2
10554 26 25
10555 11 1
10555 28 7
10555 38 1
10556 34 1
10557 18 1
10558 2 29
10558 3 44
10558 29 17
10558 30 2
10558 34 49
10559 2 1
10560 19 1
10561 5 1
10562 11 1
10562 24 1
10562 38 1
10563 9 1
10564 2 1
10564 16 1
10565 5 1
10566 34 1
10567 2 7
10567 3 20
10567 22 1
10567 25 3
10567 26 9
10567 29 1
10567 31 3
10567 34 21
10568 26 1
10568 34 1
10569 24 23
10569 34 1
10570 22 1
10571 2 1
10571 28 1
10572 10 1
10573 31 1
10574 2 10
10574 3 13
10574 24 2
10574 34 9
10575 2 1
10575 28 7
10576 28 7
10577 34 1
10578 21 1
10579 2 1
10579 18 1
10580 22 1
10580 31 11
10580 34 1
10581 24 3
10581 28 2
10581 29 15
10581 30 3
10581 38 1
10582 24 1
10582 38 1
10583 19 1
10583 21 1
10583 28 1
10584 24 3
10585 12 7
10585 14 8
10585 18 2
10585 19 5
10585 20 2
10586 24 1
10586 29 1
10587 1 1
10587 2 2
10587 3 6
10587 22 1
10587 34 7
10588 28 1
10589 31 2
10590 1 1
10590 3 1
10590 4 1
10590 5 7
10590 38 11
10591 24 7
10592 3 1
10593 19 2
10593 38 1
10594 8 1
10594 24 2
10594 29 10
10595 31 3
10596 34 1
10597 12 1
10597 15 1
10598 17 1
10599 10 1
10600 2 1
10601 4 3
10601 5 11
10601 38 10
10602 3 1
10602 9 17
10602 10 22
10602 11 11
10603 31 5
10604 2 1
10604 5 1
10604 24 1
10604 34 1
10605 3 2
10605 24 3
10605 29 1
10606 34 1
10607 19 1
10607 22 1
10608 25 1
10608 26 15
10609 24 10
10610 21 1
10611 18 2
10611 19 1
10612 29 7
10613 14 1
10614 14 1
10614 31 5
10615 24 1
10616 5 1
10616 24 1
10616 34 1
10617 4 1
10617 5 16
10617 38 12
10618 18 1
10619 34 1
10620 3 1
10620 5 1
10621 4 3
10621 5 12
10621 12 2
10621 14 3
10621 22 1
10621 38 12
10622 9 1
10622 10 2
10622 11 1
10623 24 1
10623 25 1
10623 26 9
10624 5 1
10625 29 1
10626 3 1
10627 29 1
10628 28 2
10629 28 2
10630 21 9
10630 22 5
10631 5 1
10631 14 1
10632 4 1
10633 29 7
10633 30 2
10634 5 2
10634 21 1
10634 38 1
10635 2 16
10635 3 16
10635 8 1
10635 34 26
10636 9 2
10636 10 4
10636 11 1
10637 7 1
10637 22 1
10638 12 3
10638 17 1
10639 22 1
10639 29 17
10639 30 1
10639 31 1
10640 2 2
10640 3 2
10640 34 4
10641 16 1
10642 12 8
10642 14 5
10643 5 1
10644 22 1
10645 21 1
10645 24 4
10646 7 1
10646 21 2
10646 24 1
10647 21 36
10647 22 36
10647 24 1
10648 2 1
10649 5 1
10649 34 1
10650 24 1
10651 1 1
10651 2 4
10651 3 9
10651 34 10
10652 19 1
10652 24 1
10653 3 1
10654 34 1
10655 22 1
10656 5 1
10657 24 1
10658 9 2
10658 10 2
10659 5 1
10659 7 21
10659 8 24
10659 24 1
10660 24 1
10661 5 1
10662 24 1
10663 14 1
10664 21 1
10665 18 7
10665 19 14
10665 20 3
10665 29 1
10666 4 17
10666 5 94
10666 34 1
10666 38 99
10667 3 1
10667 5 1
10667 34 1
10668 31 1
10668 34 1
10669 21 1
10670 12 11
10670 13 1
10670 14 9
10671 26 1
10672 29 19
10673 26 1
10674 18 1
10675 4 1
10676 38 1
10677 31 7
10678 24 2
10679 18 1
10680 5 1
10681 19 1
10681 24 1
10682 10 1
10682 18 5
10682 19 11
10682 20 5
10683 4 5
10683 5 35
10683 38 31
10684 4 7
10684 5 25
10684 38 35
10685 14 1
10686 4 5
10686 5 25
10686 24 11
10686 29 8
10686 38 29
10687 4 3
10687 5 13
10687 38 21
10688 2 1
10689 31 1
10690 2 11
10690 3 31
10690 9 1
10690 10 4
10690 11 5
10690 34 41
10691 29 1
10692 3 1
10693 38 1
10694 21 9
10694 22 9
10695 3 1
10696 2 2
10696 3 2
10696 5 1
10696 14 1
10696 34 1
10696 38 3
10697 5 1
10697 9 21
10697 10 36
10697 11 17
10697 38 1
10698 18 1
10699 3 1
10699 29 3
10699 34 1
10700 14 1
10700 29 10
10700 30 2
10701 38 1
10702 38 1
10703 11 1
10704 5 1
10705 31 1
10706 7 1
10707 3 1
10708 19 1
10709 1 1
10709 2 6
10709 3 13
10709 34 8
10710 12 18
10710 14 11
10710 29 1
10711 23 2
10711 24 16
10712 28 1
10713 1 1
10713 2 20
10713 3 29
10713 5 1
10713 24 2
10713 34 42
10714 2 1
10715 17 1
10716 24 5
10716 29 6
10716 30 1
10716 34 1
10717 13 1
10718 15 1
10718 16 2
10718 17 1
10719 9 2
10719 10 1
10720 11 1
10720 18 9
10720 19 29
10721 13 1
10721 19 1
10722 2 1
10723 24 1
10724 24 1
10724 25 1
10724 29 1
10725 18 1
10725 22 1
10725 24 1
10725 29 27
10725 30 3
10726 5 4
10726 38 2
10727 7 1
10727 29 1
10728 29 1
10728 30 1
10728 34 1
10729 38 1
10730 24 22
10731 2 1
10731 16 2
10731 17 3
10732 38 1
10733 8 1
10734 29 7
10735 26 1
10736 7 1
10736 24 2
10736 34 1
10737 2 1
10737 4 3
10737 5 28
10737 38 23
10738 4 1
10738 5 8
10738 38 3
10739 38 1
10740 4 1
10741 12 4
10741 14 3
10742 11 1
10742 17 1
10743 1 2
10743 2 39
10743 3 39
10743 34 53
10744 24 3
10744 26 5
10745 24 1
10746 38 1
10747 9 2
10747 11 1
10747 19 2
10747 29 4
10748 3 1
10749 34 1
10750 34 1
10751 17 1
10752 31 1
10753 24 1
10754 15 5
10754 16 3
10754 17 4
10755 29 5
10756 4 2
10756 5 14
10756 24 1
10756 38 13
10757 11 1
10758 34 1
10759 3 1
10759 34 1
10760 10 1
10761 2 17
10761 3 35
10761 34 43
10762 19 1
10763 24 1
10764 5 1
10764 8 1
10764 17 1
10764 29 1
10764 38 1
10765 34 1
10766 26 1
10766 34 1
10767 29 1
10768 34 1
10769 12 2
10770 4 1
10770 5 5
10770 15 1
10770 18 5
10770 19 2
10770 20 3
10770 28 5
10770 38 4
10771 2 1
10771 11 1
10772 9 29
10772 10 42
10772 11 17
10772 21 1
10773 19 1
10774 31 18
10775 31 3
10776 5 1
10776 28 10
10776 31 1
10777 18 1
10778 19 1
10779 29 1
10780 2 1
10780 24 2
10781 31 2
10781 33 1
10782 4 2
10783 28 5
10784 5 1
10785 5 1
10785 29 6
10785 30 2
10786 18 12
10786 19 14
10786 20 8
10787 24 2
10788 2 1
10789 12 4
10789 14 3
10789 31 1
10790 15 2
10790 16 1
10790 17 1
10791 3 1
10791 24 4
10792 34 1
10793 24 1
10794 2 1
10794 34 1
10795 34 1
10796 21 1
10797 2 4
10797 3 5
10797 21 1
10797 29 5
10797 30 2
10797 34 9
10798 38 1
10799 14 1
10800 26 1
10801 5 2
10801 20 1
10801 22 2
10801 38 4
10802 19 1
10802 29 8
10802 30 1
10803 22 2
10803 31 13
10803 34 1
10804 18 1
10805 19 1
10806 3 1
10807 20 1
10807 24 2
10807 29 1
10807 31 3
10808 34 1
10809 24 1
10809 31 1
10810 5 1
10811 34 1
10812 14 1
10812 18 1
10812 26 1
10813 29 13
10814 2 1
10815 2 7
10815 3 25
10815 5 1
10815 9 2
10815 24 1
10815 34 17
10815 38 1
10816 29 1
10817 5 1
10817 21 1
10818 34 2
10819 19 1
10819 20 1
10820 3 1
10820 19 1
10821 34 1
10822 24 3
10823 18 5
10823 19 4
10823 20 1
10824 24 1
10824 29 23
10824 30 1
10824 34 1
10825 19 1
10826 18 10
10826 19 24
10826 20 10
10827 11 1
10828 38 1
10829 31 1
10830 19 1
10831 24 8
10831 30 1
10832 18 2
10832 19 1
10832 20 1
10833 3 1
10834 19 1
10835 34 1
10836 29 21
10836 30 2
10837 34 1
10838 16 1
10839 3 1
10839 15 1
10839 29 1
10840 10 1
10841 19 1
10842 5 1
10843 15 18
10843 16 12
10843 17 16
10844 24 1
10845 34 1
10846 4 3
10846 5 13
10846 21 1
10846 38 18
10847 3 4
10847 34 3
10848 30 1
10849 23 1
10849 24 9
10850 10 1
10850 11 1
10851 34 1
10852 29 9
10852 30 2
10853 31 2
10854 26 1
10855 10 1
10856 34 1
10857 18 2
10858 2 1
10859 34 1
10860 1 1
10860 2 9
10860 3 16
10860 34 19
10861 3 1
10862 21 1
10863 24 14
10864 18 1
10865 15 1
10866 3 1
10867 22 1
10868 29 1
10869 19 1
10870 12 1
10871 29 1
10871 30 1
10872 19 1
10872 21 3
10872 22 4
10873 24 1
10874 28 2
10875 23 1
10875 24 8
10875 34 1
10876 15 1
10877 9 1
10877 24 5
10877 29 8
10877 30 2
10877 31 11
10878 3 1
10878 9 3
10878 10 4
10878 11 2
10878 23 1
10878 31 8
10879 31 1
10880 9 1
10881 29 1
10882 29 1
10883 31 7
10884 4 1
10884 23 2
10884 24 25
10885 18 1
10885 29 1
10885 34 1
10886 7 1
10887 24 10
10887 26 2
10887 31 2
10888 4 1
10888 19 1
10888 20 2
10889 28 1
10890 3 1
10890 34 1
10891 28 2
10891 29 9
10892 29 3
10893 29 2
10894 26 1
10895 29 10
10896 29 21
10896 30 2
10897 24 1
10898 18 1
10899 21 8
10899 22 4
10900 12 1
10900 31 1
10901 34 1
10902 19 1
10903 2 1
10903 29 1
10903 34 3
10904 21 1
10905 8 1
10906 1 1
10906 9 11
10906 10 18
10906 11 17
10906 19 1
10907 11 1
10907 12 1
10908 28 1
10909 31 1
10910 34 1
10911 2 1
10912 12 18
10912 13 1
10912 14 5
10912 18 1
10913 1 1
10913 2 9
10913 3 11
10913 8 1
10913 34 13
10914 3 5
10915 38 1
10916 1 1
10916 2 15
10916 3 16
10916 34 20
10917 16 1
10917 17 1
10918 3 1
10918 24 8
10919 15 5
10919 16 3
10919 17 6
10920 12 48
10920 13 1
10920 14 20
10920 24 1
10920 26 11
10920 29 4
10920 30 1
10921 2 1
10921 21 1
10922 26 8
10923 10 1
10924 2 4
10924 3 7
10924 26 9
10924 34 11
10925 5 1
10926 2 2
10926 3 3
10926 26 2
10926 34 7
10927 38 1
10928 5 1
10928 20 1
10929 2 12
10929 3 15
10929 11 1
10929 20 1
10929 34 15
10930 22 1
10931 38 1
10932 26 1
10933 34 1
10934 15 1
10934 24 7
10935 24 2
10935 29 33
10935 30 3
10936 34 1
10937 12 5
10937 14 13
10938 34 1
10939 19 1
10940 4 1
10940 5 1
10940 15 1
10940 21 1
10941 20 1
10941 24 1
10941 34 1
10942 12 1
10943 2 1
10943 18 16
10943 19 34
10943 20 9
10944 2 16
10944 3 74
10944 34 82
10945 29 1
10945 31 11
10946 31 1
10947 7 1
10948 22 1
10949 3 1
10949 18 1
10949 19 5
10949 20 2
10949 24 1
10950 2 1
10950 3 3
10950 19 1
10950 34 4
10951 31 3
10951 34 1
10952 7 1
10953 18 1
10954 9 3
10954 10 2
10954 11 2
10954 18 2
10954 19 5
10954 20 1
10954 24 1
10955 2 27
10955 3 66
10955 34 65
10955 38 3
10956 4 13
10956 5 78
10956 10 1
10956 22 1
10956 34 1
10956 38 75
10957 5 1
10957 14 1
10957 18 8
10957 19 9
10957 20 2
10957 29 1
10958 2 1
10959 38 1
10960 21 1
10961 26 1
10962 5 1
10963 31 2
10963 34 1
10964 9 1
10965 19 1
10966 34 1
10967 24 2
10968 4 6
10968 5 8
10968 7 1
10968 8 3
10968 9 1
10968 28 15
10968 29 1
10968 38 11
10969 7 1
10969 22 1
10970 2 7
10970 3 2
10970 34 6
10971 13 1
10971 18 43
10971 19 70
10971 20 33
10972 34 1
10973 4 18
10973 5 74
10973 38 65
10974 38 5
10975 24 1
10976 3 1
10977 15 1
10977 18 6
10977 19 7
10978 3 1
10978 31 1
10979 3 1
10979 29 2
10979 30 1
10980 34 1
10981 9 5
10981 10 2
10981 11 3
10982 34 1
10983 24 1
10984 24 1
10985 2 3
10985 3 7
10985 26 1
10985 34 3
10986 2 5
10986 3 6
10986 8 1
10986 26 1
10986 34 5
10987 22 2
10988 3 1
10989 29 6
10990 8 1
10991 9 1
10992 26 1
10993 3 1
10994 29 4
10995 22 1
10996 3 1
10997 10 1
10997 11 2
10998 8 1
10999 3 2
11000 26 1
11001 1 4
11001 2 54
11001 3 80
11001 29 1
11001 34 97
11002 34 1
11003 29 17
11004 21 1
11005 12 3
11005 26 1
11006 9 14
11006 10 27
11006 11 11
11007 21 1
11008 8 1
11009 21 1
11010 29 1
11011 4 1
11011 7 1
11011 8 1
11012 28 2
11013 10 1
11014 8 1
11015 18 1
11016 3 1
11017 34 1
11018 31 6
11019 18 1
11019 29 1
11020 2 1
11020 10 1
11020 19 6
11021 12 15
11021 13 3
11021 14 8
11022 2 3
11022 3 10
11022 34 14
11023 19 1
11024 12 4
11024 14 7
11025 5 1
11026 1 1
11026 2 11
11026 3 21
11026 34 15
11027 29 9
11028 2 1
11028 14 1
11028 34 1
11029 3 1
11030 18 1
11031 10 1
11032 2 1
11033 14 1
11034 29 12
11034 30 1
11035 2 1
11036 18 8
11036 19 10
11036 20 4
11037 18 4
11037 19 8
11037 20 4
11037 28 1
11038 24 1
11039 28 6
11039 29 1
11040 12 1
11041 10 1
11041 11 2
11042 2 1
11042 10 1
11043 5 1
11043 31 1
11044 13 1
11045 30 1
11046 38 1
11047 22 1
11048 18 5
11048 19 6
11048 20 1
11049 31 2
11050 5 1
11051 18 1
11052 38 1
11053 2 1
11053 3 5
11053 18 1
11053 34 8
11054 3 1
11055 38 1
11056 3 1
11056 5 1
11056 9 1
11056 24 4
11056 38 1
11057 5 1
11058 34 1
11059 38 1
11060 4 5
11060 5 14
11060 38 19
11061 19 1
11062 31 7
11063 5 1
11064 19 1
11065 5 1
11066 15 1
11067 2 16
11067 3 32
11067 11 1
11067 12 1
11067 34 40
11068 24 1
11069 29 1
11070 26 1
11071 4 1
11071 5 4
11071 11 1
11071 38 5
11072 7 7
11072 8 11
11073 38 1
11074 29 17
11075 21 1
11076 7 1
11077 3 1
11078 29 1
11079 9 1
11079 14 1
11079 19 1
11080 4 7
11080 5 59
11080 38 55
11081 3 1
11082 26 1
11083 4 3
11083 5 17
11083 38 22
11084 24 2
11085 23 1
11085 24 16
11086 29 1
11087 22 1
11088 17 1
11089 4 1
11090 5 1
11091 2 2
11091 15 3
11091 16 1
11091 17 2
11091 24 1
11092 5 1
11092 24 1
11092 29 1
11093 5 1
11094 2 1
11095 24 1
11096 24 1
11097 19 1
11097 28 3
11098 4 4
11098 5 14
11098 24 1
11098 28 1
11098 29 1
11098 38 15
11099 11 1
11099 18 1
11100 24 3
11101 24 7
11102 8 1
11103 3 1
11103 7 1
11104 21 1
11105 24 1
11105 29 15
11105 30 1
11106 5 1
11106 15 7
11106 16 1
11106 17 8
11107 19 1
11108 14 1
11109 29 1
11110 2 5
11110 3 29
11110 29 1
11110 34 25
11111 2 1
11111 21 1
11112 28 3
11113 12 4
11113 14 1
11114 3 1
11115 23 1
11115 24 16
11116 1 1
11116 2 3
11116 3 16
11116 34 8
11117 18 2
11117 19 2
11117 38 1
11118 13 1
11119 3 1
11120 12 3
11121 5 1
11121 26 1
11122 20 1
11123 11 1
11123 12 4
11123 14 4
11124 2 7
11124 3 2
11124 34 5
11125 4 1
11125 34 1
11126 2 1
11127 34 1
11128 9 1
11128 10 2
11128 11 2
11129 10 1
11130 5 1
11131 21 1
11131 34 1
11132 12 1
11133 34 1
11134 34 1
11135 21 38
11135 22 34
11136 4 6
11136 5 39
11136 38 49
11137 3 1
11137 24 17
11137 34 1
11138 4 1
11138 28 7
11138 38 1
11139 5 1
11139 9 1
11140 5 1
11141 34 1
11142 14 1
11143 24 1
11144 26 6
11144 31 2
11145 21 1
11146 3 1
11146 18 8
11146 19 18
11146 20 10
11147 2 5
11147 3 16
11147 34 18
11148 31 1
11149 12 10
11149 14 4
11149 38 1
11150 4 9
11150 5 18
11150 19 1
11150 38 17
11151 23 1
11151 24 4
11152 24 1
11152 29 1
11152 31 1
11153 11 1
11153 15 2
11153 16 1
11153 17 2
11153 21 1
11154 3 1
11155 24 1
11156 29 1
11157 5 2
11157 12 2
11158 38 1
11159 28 2
11160 31 4
11161 38 1
11162 12 1
11163 10 1
11164 5 2
11164 7 2
11164 8 2
11164 38 2
11165 24 8
11166 29 1
11167 34 1
11168 17 1
11169 29 13
11169 30 1
11170 14 1
11170 26 1
11171 4 1
11171 5 5
11171 38 11
11172 4 7
11172 5 38
11172 38 39
11173 29 1
11174 34 1
11175 2 1
11175 9 3
11175 10 5
11175 11 7
11175 19 1
11176 38 1
11177 24 1
11178 1 1
11178 2 37
11178 3 79
11178 14 1
11178 20 1
11178 34 80
11179 12 11
11179 14 5
11180 3 1
11180 5 1
11180 21 37
11180 22 27
11181 38 3
11182 29 7
11182 30 1
11183 10 1
11184 12 1
11185 38 1
11186 9 1
11187 24 2
11187 31 1
11188 3 1
11189 2 3
11189 3 1
11189 8 2
11189 21 1
11189 24 2
11189 34 2
11190 4 2
11190 5 6
11190 38 12
11191 3 1
11192 21 1
11193 9 1
11193 22 1
11193 34 1
11194 18 1
11195 5 1
11196 3 1
11197 2 4
11197 3 11
11197 10 1
11197 34 10
11198 17 1
11199 9 1
11199 15 1
11199 21 1
11200 34 1
11201 1 1
11201 2 16
11201 3 45
11201 34 43
11202 2 1
11202 38 1
11203 23 1
11203 24 17
11204 19 1
11205 16 1
11205 18 1
11205 34 1
11206 8 1
11206 19 3
11206 20 2
11207 16 1
11207 17 1
11208 25 1
11208 26 8
11209 21 23
11209 22 12
11210 12 1
11211 29 2
11212 10 1
11213 24 1
11213 38 1
11214 14 1
11215 24 3
11215 34 1
11216 34 1
11217 24 2
11218 24 1
11219 1 1
11219 2 22
11219 3 33
11219 24 1
11219 34 30
11220 19 1
11221 10 1
11222 26 2
11223 2 1
11224 5 1
11224 21 1
11224 28 3
11225 2 3
11225 3 8
11225 34 4
11226 31 1
11227 24 2
11227 25 4
11227 26 19
11228 3 1
11229 29 1
11229 30 2
11230 12 1
11231 5 1
11232 5 1
11233 9 16
11233 10 38
11233 11 24
11233 12 7
11233 14 4
11234 10 1
11234 21 19
11234 22 7
11235 4 1
11235 5 3
11235 38 3
11236 7 1
11237 5 1
11238 2 1
11238 3 1
11238 34 1
11238 38 1
11239 38 1
11240 34 1
11241 29 1
11242 21 10
11242 22 11
11243 26 5
11244 2 1
11244 28 18
11245 28 1
11246 38 1
11247 24 1
11248 2 5
11248 3 7
11248 34 5
11249 5 1
11249 18 16
11249 19 28
11249 20 6
11250 38 1
11251 25 1
11251 26 3
11252 5 2
11253 9 1
11254 10 1
11255 24 16
11256 10 1
11257 10 1
11257 29 5
11258 19 1
11259 1 1
11259 2 6
11259 3 3
11259 28 1
11259 34 8
11260 11 1
11261 23 1
11262 4 1
11263 24 1
11263 29 30
11263 30 1
11263 31 1
11264 22 1
11264 38 1
11265 24 1
11266 24 1
11267 15 1
11268 21 4
11268 22 3
11269 2 1
11269 4 1
11269 9 1
11269 24 16
11270 34 1
11271 34 1
11271 38 1
11272 2 1
11272 15 7
11272 16 10
11272 17 6
11273 15 2
11273 16 1
11273 24 1
11273 38 1
11274 14 1
11275 24 5
11276 3 1
11276 8 1
11276 28 2
11277 10 1
11278 2 1
11278 3 2
11278 25 1
11278 26 2
11278 34 6
11279 19 1
11279 34 1
11280 28 1
11281 4 1
11282 18 16
11282 19 30
11282 20 17
11283 19 1
11284 38 1
11285 5 1
11286 4 1
11286 38 2
11287 34 1
11288 21 1
11289 17 1
11290 7 1
11290 8 8
11291 21 1
11291 31 8
11292 18 1
11293 18 2
11293 19 6
11293 20 2
11294 24 9
11295 3 1
11295 38 1
11296 17 1
11297 34 1
11298 2 4
11298 3 3
11298 8 1
11298 19 1
11298 34 1
11299 34 1
11300 4 1
11301 38 1
11302 23 3
11302 24 21
11303 20 1
11304 31 2
11305 15 16
11305 16 16
11305 17 13
11306 15 1
11307 7 5
11307 8 8
11308 3 1
11309 2 1
11310 14 2
11311 29 3
11312 26 4
11313 21 1
11313 29 1
11314 29 1
11315 18 10
11315 19 24
11315 20 3
11316 2 2
11317 24 16
11318 38 1
11319 8 1
11320 34 1
11321 3 1
11322 19 1
11323 29 8
11323 30 1
11324 12 5
11325 11 3
11327 24 1
11327 34 1
11328 4 2
11328 5 27
11328 38 25
11329 18 1
11330 22 1
11331 8 1
11332 24 1
11333 24 1
11334 1 1
11334 2 19
11334 3 26
11334 34 33
11335 12 2
11336 38 1
11337 5 1
11338 24 12
11338 25 1
11338 26 7
11338 38 1
11339 12 1
11340 5 19
11340 38 23
11341 15 3
11341 16 3
11341 17 2
11341 21 1
11342 29 1
11343 19 1
11344 3 1
11344 17 1
11344 18 10
11344 19 9
11344 20 3
11344 38 1
11345 5 1
11346 2 1
11347 2 12
11347 3 12
11347 11 1
11347 31 3
11347 34 8
11348 34 1
11348 38 1
11349 7 3
11350 2 1
11350 10 1
11351 18 4
11351 19 3
11351 20 1
11352 19 1
11352 21 11
11352 22 10
11353 20 1
11353 23 1
11353 24 5
11353 29 1
11354 12 1
11355 5 1
11356 17 1
11357 3 1
11357 29 4
11357 31 14
11358 26 1
11359 10 1
11360 10 1
11360 38 1
11361 3 1
11361 34 1
11362 7 2
11362 8 1
11363 2 1
11363 24 1
11364 9 1
11365 18 1
11366 9 11
11366 10 17
11366 11 14
11366 14 1
11367 3 1
11368 2 1
11368 3 16
11368 34 34
11369 12 1
11370 24 1
11371 3 1
11371 21 6
11371 22 2
11372 31 1
11373 29 1
11374 19 1
11375 1 3
11375 2 24
11375 3 32
11375 29 1
11375 34 40
11376 7 1
11376 8 4
11377 5 1
11377 12 12
11377 13 2
11377 14 17
11377 38 1
11378 38 1
11379 5 1
11379 8 1
11379 34 1
11380 3 1
11381 24 1
11382 29 12
11382 30 1
11383 31 7
11384 14 1
11385 34 1
11386 21 9
11386 22 4
11387 38 1
11388 10 1
11388 21 1
11389 38 1
11390 34 1
11391 7 3
11391 34 1
11392 10 2
11392 38 1
11393 4 1
11393 5 8
11393 38 12
11394 24 14
11395 12 1
11395 23 1
11395 24 3
11396 3 1
11397 31 1
11397 38 1
11398 18 1
11399 3 1
11399 34 1
11400 8 1
11400 24 1
11401 5 1
11401 12 1
11402 4 1
11403 2 3
11403 3 2
11403 34 4
11404 31 7
11405 19 2
11406 21 1
11407 2 4
11407 3 19
11407 34 15
11408 17 1
11408 38 1
11409 28 1
11409 34 1
11410 4 4
11410 5 21
11410 38 30
11411 24 1
11412 4 7
11412 5 25
11412 38 54
11413 3 1
11414 18 10
11414 19 15
11414 20 5
11415 29 11
11416 14 1
11417 5 1
11418 4 8
11418 5 42
11418 38 35
11419 12 9
11419 13 1
11419 14 12
11420 24 2
11421 28 1
11422 24 4
11423 21 2
11424 3 1
11425 21 1
11426 3 1
11427 2 1
11427 3 2
11427 5 1
11427 10 1
11427 24 3
11427 29 1
11427 38 1
11428 11 1
11428 18 1
11428 19 1
11429 34 1
11430 2 16
11430 3 30
11430 34 32
11431 4 1
11431 5 10
11431 38 10
11432 38 1
11433 5 1
11433 18 7
11433 19 15
11433 20 2
11434 19 1
11435 28 3
11436 9 1
11436 21 1
11437 2 1
11438 28 3
11438 38 1
11439 13 1
11440 3 1
11441 5 1
11441 34 1
11442 2 1
11443 3 1
11444 34 1
11445 18 1
11446 7 11
11446 8 15
11447 21 1
11448 29 29
11448 30 1
11449 18 15
11449 19 37
11449 20 6
11450 11 1
11451 29 1
11452 34 1
11453 4 1
11454 4 1
11454 5 16
11454 38 30
11455 12 6
11455 14 6
11456 2 1
11457 17 1
11458 24 1
11459 2 8
11459 3 6
11459 24 1
11459 26 1
11459 28 1
11459 34 13
11460 20 1
11461 31 3
11461 38 1
11462 24 9
11463 4 1
11463 5 12
11463 19 1
11463 38 10
11464 15 2
11464 16 1
11465 24 1
11466 28 4
11467 28 7
11467 38 1
11468 3 1
11469 24 1
11470 5 1
11471 3 1
11471 18 1
11472 11 1
11472 31 3
11472 33 1
11472 38 1
11473 3 1
11474 7 2
11474 8 3
11474 18 2
11474 20 1
11475 18 1
11475 34 2
11476 17 2
11477 3 1
11477 4 1
11477 7 1
11477 8 1
11477 9 1
11477 19 1
11477 20 1
11477 22 1
11477 24 1
11477 26 1
11477 29 1
11477 31 1
11477 34 2
11477 38 1
11478 24 1
11479 9 1
11479 34 1
11480 3 1
11480 4 1
11480 31 1
11480 34 1
11481 29 5
11481 30 1
11482 2 1
11483 24 1
11484 3 1
11485 9 1
11485 10 3
11485 18 1
11485 24 18
11485 31 9
11486 3 1
11486 23 1
11486 24 11
11487 34 1
11488 34 1
11489 29 1
11490 7 8
11490 8 9
11491 21 10
11491 22 20
11492 12 8
11492 14 4
11493 10 1
11494 20 1
11495 2 2
11495 3 9
11495 18 1
11495 19 1
11495 29 1
11495 34 8
11496 28 1
11497 29 4
11497 30 2
11498 18 1
11498 26 1
11498 31 2
11498 34 1
11499 14 1
11500 15 1
11501 5 1
11502 2 1
11503 38 1
11504 24 1
11505 19 2
11506 19 1
11507 31 1
11508 22 1
11509 7 11
11509 8 31
11509 21 16
11509 22 12
11510 22 1
11511 2 2
11511 3 1
11511 34 1
11512 8 1
11513 3 1
11514 3 1
11514 38 1
11515 34 1
11515 38 1
11516 3 1
11517 34 1
11518 29 2
11519 28 3
11520 34 1
11521 2 1
11522 21 27
11522 22 17
11522 29 1
11523 3 1
11523 31 13
11524 10 1
11524 31 1
11524 34 1
11524 38 1
11525 10 1
11526 22 1
11527 28 1
11528 5 1
11528 24 1
11528 29 4
11529 19 1
11530 2 1
11531 34 2
11532 2 10
11532 3 25
11532 34 33
11533 18 2
11533 19 1
11533 20 1
11534 19 1
11535 18 1
11535 24 17
11536 38 1
11537 31 1
11538 28 1
11538 31 1
11539 38 1
11540 7 1
11540 12 2
11540 13 1
11540 14 7
11541 38 1
11542 4 2
11542 5 21
11542 24 1
11542 38 20
11543 5 1
11544 12 18
11544 14 13
11544 31 2
11545 3 1
11545 24 17
11546 24 1
11547 18 2
11547 19 2
11547 20 2
11548 34 1
11549 11 1
11550 29 1
11551 5 1
11551 26 13
11552 24 1
11552 34 1
11553 2 1
11553 24 1
11553 28 4
11554 3 1
11555 4 11
11555 5 41
11555 31 1
11555 38 42
11556 10 1
11556 34 1
11557 3 9
11557 34 7
11558 9 1
11559 34 1
11560 3 2
11560 5 1
11560 24 2
11560 34 2
11560 38 1
11561 18 1
11562 9 1
11563 3 1
11563 26 1
11563 28 10
11564 2 1
11564 21 1
11565 18 1
11566 24 1
11566 26 10
11566 31 1
11568 4 1
11568 5 5
11568 38 6
11569 18 1
11570 29 1
11571 22 1
11572 24 6
11573 3 1
11573 7 1
11574 2 1
11574 3 2
11574 24 1
11574 34 6
11575 2 1
11575 34 1
11576 38 1
11577 4 1
11578 24 5
11579 34 1
11580 31 17
11581 38 1
11582 5 1
11584 1 1
11584 34 2
11585 4 1
11585 5 16
11585 38 8
11586 22 1
11587 28 1
11588 23 1
11588 24 17
11588 34 1
11589 5 1
11589 15 10
11589 16 5
11589 17 8
11589 24 1
11590 38 1
11591 4 11
11591 5 29
11591 38 51
11592 34 1
11593 23 1
11593 24 23
11594 24 1
11595 2 3
11595 3 4
11596 28 1
11597 24 6
11597 25 1
11597 26 1
11598 12 6
11598 13 1
11598 14 9
11598 29 1
11599 38 1
11600 31 11
11601 3 1
11601 5 1
11601 9 1
11601 10 1
11601 11 1
11602 2 1
11602 10 3
11602 24 18
11602 34 1
11603 1 1
11603 2 19
11603 3 51
11603 24 1
11603 34 38
11604 38 1
11605 34 1
11606 18 9
11606 19 5
11606 20 5
11607 12 9
11607 14 8
11608 19 1
11609 18 2
11609 19 2
11609 30 1
11610 34 1
11611 12 1
11612 34 1
11613 12 1
11613 19 1
11614 4 7
11614 5 62
11614 34 2
11614 38 62
11615 18 4
11615 19 2
11616 3 1
11617 34 1
11618 5 1
11619 29 1
11620 38 1
11621 7 1
11621 8 3
11621 18 1
11621 19 1
11622 15 1
11623 3 1
11624 21 1
11624 22 4
11624 31 10
11624 38 1
11625 10 1
11626 12 16
11626 13 1
11626 14 8
11626 22 1
11627 5 4
11627 38 2
11628 2 4
11628 3 13
11628 34 9
11629 34 1
11630 9 1
11631 19 1
11632 14 1
11633 21 8
11633 22 3
11633 25 1
11633 26 17
11634 29 1
11635 4 1
11635 5 8
11635 8 1
11635 14 1
11635 15 1
11635 38 13
11636 3 1
11637 12 1
11638 20 2
11638 31 5
11638 33 1
11639 19 1
11640 38 1
11641 29 1
11642 21 1
11642 29 1
11642 38 2
11643 5 1
11643 9 8
11643 10 19
11643 11 14
11644 4 1
11644 24 22
11644 29 1
11645 2 1
11645 22 2
11646 34 1
11647 24 1
11647 38 1
11648 29 1
11649 28 1
11650 2 1
11650 34 2
11651 34 1
11652 18 1
11652 31 1
11653 5 1
11653 28 1
11654 31 5
11655 31 14
11656 18 4
11656 19 10
11656 20 6
11657 3 1
11658 3 1
11659 23 1
11659 24 25
11660 20 1
11661 24 1
11662 2 4
11662 3 5
11662 28 2
11662 34 4
11663 38 1
11664 29 2
11664 38 1
11665 24 6
11666 38 1
11667 3 1
11668 29 1
11669 24 8
11670 31 1
11671 29 8
11672 9 22
11672 10 29
11672 11 21
11673 20 1
11674 34 1
11675 24 1
11676 2 11
11676 3 28
11676 34 12
11677 2 6
11677 3 11
11677 34 9
11678 29 2
11679 28 1
11679 29 16
11679 30 1
11680 31 1
11681 24 1
11682 4 16
11682 5 65
11682 7 3
11682 8 4
11682 38 82
11683 5 1
11684 12 1
11684 14 2
11684 24 1
11685 3 1
11685 5 1
11685 7 3
11685 8 1
11685 21 1
11686 5 1
11686 17 1
11686 22 1
11686 29 1
11686 34 1
11686 38 1
11687 30 1
11687 34 1
11688 15 1
11689 3 1
11689 28 4
11690 3 1
11691 24 1
11692 4 3
11692 5 21
11692 38 26
11693 29 1
11694 29 1
11695 18 1
11696 7 1
11697 38 1
11698 2 1
11699 31 2
11700 5 3
11700 38 5
11701 34 1
11702 12 11
11702 14 8
11703 24 1
11703 26 1
11704 5 1
11704 8 2
11704 19 1
11705 21 1
11706 9 12
11706 10 24
11706 11 11
11706 18 1
11706 31 1
11707 20 1
11708 7 1
11708 18 9
11708 19 8
11709 20 1
11709 24 1
11710 2 1
11710 24 1
11711 15 1
11712 7 12
11712 8 22
11712 12 1
11712 21 1
11713 7 12
11713 8 13
11714 14 2
11714 31 1
11715 4 2
11715 5 7
11715 24 1
11715 38 11
11716 8 1
11717 38 1
11718 31 1
11719 8 1
11720 10 1
11720 26 1
11721 18 17
11721 19 27
11721 20 6
11722 7 9
11722 8 15
11723 2 1
11724 34 1
11725 3 1
11726 31 1
11727 14 1
11727 31 4
11728 26 3
11729 34 1
11730 10 1
11731 34 1
11732 5 1
11732 7 1
11732 22 1
11732 24 3
11733 4 8
11733 5 44
11733 38 43
11734 24 1
11735 3 1
11736 28 2
11737 3 1
11738 3 1
11738 31 1
11739 18 1
11740 31 12
11740 33 1
11741 24 1
11742 4 2
11742 12 1
11742 29 1
11742 38 1
11743 5 4
11743 38 5
11744 21 2
11744 24 1
11744 34 1
11745 24 30
11745 38 1
11746 20 1
11747 34 1
11748 2 20
11748 3 21
11748 18 1
11748 34 35
11749 3 1
11750 3 1
11750 18 1
11750 34 1
11751 10 1
11752 21 1
11753 4 1
11754 22 1
11755 22 1
11756 8 1
11757 28 2
11758 31 11
11759 24 7
11760 19 1
11760 24 1
11760 28 1
11761 3 1
11762 21 8
11762 22 8
11763 24 1
11763 34 1
11764 22 1
11765 3 1
11766 7 10
11766 8 23
11766 38 1
11767 21 1
11767 22 3
11767 34 1
11768 2 1
11768 18 26
11768 19 27
11768 20 14
11768 38 1
11769 14 1
11769 34 1
11770 24 1
11771 5 1
11771 7 1
11771 12 1
11771 18 1
11772 34 1
11773 3 1
11774 21 1
11775 14 1
11776 7 7
11776 8 6
11777 5 1
11777 12 1
11778 8 1
11779 1 1
11779 2 7
11779 3 16
11779 12 1
11779 16 1
11779 18 1
11779 29 6
11779 34 16
11780 12 3
11780 14 2
11781 20 1
11782 5 1
11782 38 1
11783 5 1
11784 12 1
11785 18 12
11785 19 21
11785 20 3
11786 21 1
11786 31 3
11787 3 1
11788 24 1
11789 2 3
11789 3 2
11789 34 8
11790 24 1
11791 29 16
11791 30 1
11792 2 1
11793 22 1
11793 31 6
11794 2 1
11794 24 1
11795 25 1
11795 26 5
11795 31 2
11796 24 1
11797 21 1
11798 14 1
11799 29 1
11800 4 1
11800 5 5
11800 19 1
11800 38 4
11801 5 1
11802 31 1
11803 19 1
11804 15 1
11805 31 15
11806 22 1
11807 31 1
11808 31 1
11809 5 1
11809 9 1
11809 10 1
11809 34 1
11810 24 1
11811 2 21
11811 3 40
11811 34 40
11812 24 1
11813 3 1
11814 34 1
11815 18 9
11815 19 22
11815 20 7
11816 21 5
11816 22 6
11817 12 1
11818 5 1
11819 29 12
11819 38 1
11820 2 14
11820 3 11
11820 34 14
11821 5 6
11821 22 1
11821 38 9
11822 29 5
11822 31 9
11823 26 1
11823 29 1
11824 38 1
11825 18 4
11825 19 2
11826 7 9
11826 8 19
11827 3 1
11827 12 1
11827 24 1
11828 31 1
11829 31 1
11830 34 1
11831 2 12
11831 3 30
11831 34 37
11832 31 1
11833 34 1
11834 22 1
11834 34 1
11835 29 1
11836 20 1
11837 24 22
11838 31 1
11839 22 1
11840 15 1
11840 16 1
11841 24 1
11842 5 1
11843 5 1
11843 29 10
11844 5 1
11844 7 2
11844 8 5
11845 3 1
11846 4 1
11846 5 13
11846 10 1
11846 15 1
11846 16 2
11846 34 2
11846 38 13
11847 28 4
11848 34 1
11849 2 1
11850 21 1
11851 38 1
11852 10 3
11852 11 1
11852 15 10
11852 19 1
11853 12 11
11853 13 1
11853 14 8
11853 34 1
11854 7 3
11854 8 2
11854 24 1
11854 38 1
11855 3 1
11855 34 1
11856 18 1
11856 24 9
11857 29 1
11858 5 1
11859 26 1
11859 29 3
11860 18 15
11861 16 1
11862 10 1
11862 28 8
11863 3 1
11864 34 1
11865 4 1
11865 5 5
11865 21 1
11865 38 6
11866 11 1
11866 24 6
11866 26 1
11867 4 1
11868 18 1
11868 19 2
11868 20 1
11869 12 2
11869 14 1
11870 18 1
11871 24 7
11871 38 1
11872 10 1
11872 24 2
11873 4 4
11873 5 17
11873 38 20
11874 22 1
11874 29 11
11875 24 1
11876 18 1
11876 29 1
11877 24 6
11877 26 3
11878 3 1
11878 22 1
11878 38 1
11879 7 13
11879 8 25
11879 22 1
11880 38 1
11881 2 1
11881 18 6
11881 19 3
11882 14 1
11883 18 1
11884 10 1
11885 38 1
11886 29 1
11887 26 1
11888 34 1
11889 12 1
11890 28 2
11891 29 1
11892 38 1
11893 24 1
11894 24 1
11894 28 8
11895 5 1
11895 19 1
11896 19 1
11896 34 1
11897 12 2
11897 13 1
11897 14 2
11898 7 1
11898 8 2
11899 9 1
11899 38 1
11900 7 1
11900 9 1
11901 4 4
11901 5 22
11901 28 1
11901 38 21
11902 24 4
11903 18 26
11903 19 38
11903 20 17
11904 16 1
11905 1 3
11905 2 38
11905 3 32
11905 34 51
11906 19 1
11906 38 1
11907 18 2
11907 19 6
11907 20 2
11907 24 1
11908 34 1
11909 12 2
11909 14 3
11910 38 1
11911 5 2
11911 38 2
11912 20 1
11912 31 7
11913 24 1
11913 31 4
11914 25 1
11914 26 17
11915 3 1
11916 34 1
11917 25 3
11917 26 9
11918 12 1
11919 34 1
11920 19 1
11920 24 11
11921 19 2
11921 31 1
11921 34 1
11922 3 1
11922 4 7
11922 5 28
11922 38 29
11923 34 1
11924 2 1
11925 31 3
11926 20 1
11927 12 1
11927 18 1
11928 31 1
11929 24 2
11930 26 1
11931 12 12
11931 14 6
11932 12 5
11933 21 10
11933 22 13
11934 18 1
11935 14 1
11936 3 1
11937 5 1
11937 25 1
11937 26 4
11937 34 1
11938 8 1
11939 31 1
11940 4 6
11940 5 27
11940 38 28
11941 18 1
11942 9 2
11942 10 6
11942 11 3
11942 19 1
11942 34 1
11943 2 1
11944 3 1
11945 14 1
11946 2 5
11946 3 7
11946 34 3
11947 29 2
11948 4 2
11948 5 2
11948 12 1
11948 38 2
11949 16 1
11950 24 5
11951 3 1
11951 26 2
11951 34 1
11952 10 2
11952 11 2
11952 15 1
11952 18 7
11952 19 8
11952 20 4
11952 22 1
11953 21 1
11953 24 1
11953 34 1
11954 21 3
11954 22 1
11955 22 1
11955 28 1
11956 1 1
11956 38 1
11957 4 1
11957 5 2
11957 38 2
11958 5 1
11959 5 1
11960 31 7
11961 3 1
11962 2 1
11962 3 6
11962 34 17
11963 24 20
11963 34 1
11964 29 2
11965 10 1
11965 24 9
11966 2 13
11966 3 10
11966 34 6
11967 3 1
11968 4 1
11968 18 3
11968 19 2
11968 34 1
11969 29 1
11970 29 26
11970 31 1
11971 3 1
11971 4 5
11971 5 12
11971 38 14
11972 9 1
11972 18 1
11972 21 1
11973 31 6
11974 34 1
11974 38 1
11975 28 2
11976 34 1
11977 29 6
11978 28 1
11979 4 8
11979 5 48
11979 38 40
11980 23 1
11980 24 33
11980 26 8
11981 28 1
11982 38 1
11983 26 18
11984 26 1
11985 12 1
11985 29 2
11986 29 1
11987 4 11
11987 5 48
11987 18 9
11987 19 19
11987 20 13
11987 38 31
11988 24 14
11988 29 24
11989 18 23
11989 19 46
11989 20 10
11990 19 1
11991 2 8
11991 3 8
11991 34 21
11992 38 1
11993 24 16
11994 4 3
11994 5 11
11994 19 1
11994 34 1
11994 38 18
11995 38 1
11996 38 1
11997 2 1
11997 10 1
11997 26 1
11997 28 8
11998 2 1
11998 19 1
11999 28 1
12000 3 1
12000 18 3
12000 19 3
12000 20 1
12000 34 2
12001 18 1
12002 34 1
12003 21 3
12003 22 3
12004 31 1
12005 28 8
12005 29 8
12005 30 1
12006 25 1
12006 26 10
12007 2 1
12007 31 16
12008 31 8
12009 34 1
12010 4 3
12010 5 8
12010 38 19
12011 13 1
12011 31 13
12012 24 4
12012 28 2
12013 3 1
12014 29 1
12014 38 1
12015 15 1
12016 3 1
12017 4 1
12018 23 1
12018 24 1
12019 19 1
12020 19 1
12020 21 2
12021 3 1
12022 31 1
12023 7 6
12023 8 13
12023 34 1
12024 18 40
12024 19 46
12024 20 6
12025 9 2
12025 10 5
12025 11 1
12026 21 11
12026 22 13
12027 15 1
12027 30 1
12028 19 1
12029 18 1
12030 34 1
12031 2 2
12031 3 9
12031 12 1
12031 34 10
12032 19 1
12033 2 10
12033 3 17
12033 34 30
12034 24 1
12035 3 2
12036 3 1
12037 2 1
12037 29 1
12038 38 1
12039 31 2
12040 9 40
12040 10 70
12040 11 49
12041 34 1
12042 29 1
12042 31 6
12043 18 3
12043 20 1
12044 34 1
12045 13 1
12046 11 1
12047 24 1
12048 22 1
12049 26 1
12050 3 1
12051 24 2
12052 24 1
12053 11 1
12054 26 1
12055 2 3
12055 3 1
12055 26 1
12055 29 1
12055 34 1
12056 3 2
12056 29 3
12057 14 1
12058 9 1
12059 19 1
12059 31 1
12060 10 1
12060 29 1
12060 34 1
12061 24 16
12062 38 1
12063 38 1
12064 3 1
12064 28 1
12064 38 1
12065 16 2
12065 21 5
12065 22 4
12066 1 1
12066 2 5
12066 3 12
12066 31 2
12066 34 19
12067 3 1
12068 3 1
12068 9 3
12068 10 6
12068 11 1
12069 19 1
12069 24 16
12070 28 5
12070 38 1
12071 3 1
12072 9 1
12072 18 4
12072 19 2
12072 20 7
12073 21 1
12074 3 1
12074 24 1
12075 2 9
12075 3 10
12075 5 1
12075 15 1
12075 22 1
12075 34 17
12076 3 1
12076 29 18
12077 5 1
12078 12 1
12078 14 1
12079 26 1
12080 23 1
12080 24 11
12081 29 1
12082 5 1
12082 8 1
12082 9 1
12083 15 1
12083 23 1
12083 24 13
12084 7 1
12084 8 2
12084 31 1
12084 38 1
12085 38 1
12086 18 1
12087 9 2
12087 10 5
12087 11 1
12088 34 1
12089 21 1
12090 4 1
12091 15 1
12092 2 1
12092 19 1
12092 24 2
12093 34 1
12094 5 1
12095 9 3
12095 10 2
12096 3 1
12096 31 2
12097 5 1
12098 18 19
12098 19 33
12098 20 16
12098 24 1
12099 2 7
12099 3 6
12099 29 18
12099 30 1
12099 34 14
12100 9 1
12100 10 7
12100 11 4
12100 34 1
12101 38 1
12102 3 1
12102 10 1
12102 12 1
12102 29 1
12103 20 1
12104 21 1
12104 31 1
12105 21 12
12105 22 19
12105 31 1
12105 34 1
12106 4 1
12106 5 1
12106 38 4
12107 2 7
12107 3 6
12107 17 1
12107 34 14
12108 29 1
12109 11 1
12110 31 2
12110 38 1
12111 5 1
12112 14 1
12112 23 1
12112 24 19
12112 34 1
12113 2 2
12113 3 2
12113 5 1
12113 11 1
12113 24 1
12113 29 2
12113 34 4
12113 38 1
12114 13 1
12115 29 1
12116 5 1
12117 24 1
12118 2 1
12119 11 1
12120 31 1
12121 11 1
12122 29 1
12123 7 1
12123 8 4
12124 2 1
12124 3 6
12124 34 2
12125 2 27
12125 3 37
12125 11 1
12125 34 50
12126 28 1
12127 21 7
12127 22 18
12127 29 1
12127 34 1
12128 7 14
12128 8 45
12129 29 1
12130 8 1
12131 19 1
12132 7 1
12133 2 1
12133 3 1
12134 31 1
12135 22 1
12136 4 20
12136 5 70
12136 38 80
12137 3 1
12137 5 1
12137 24 1
12138 2 2
12138 4 3
12138 5 12
12138 8 1
12138 38 13
12139 19 1
12140 14 1
12140 19 1
12140 25 1
12140 26 4
12141 12 52
12141 13 2
12141 14 34
12141 19 1
12142 14 2
12142 15 5
12142 16 3
12142 17 4
12142 19 2
12143 3 1
12143 34 1
12144 15 1
12145 38 1
12146 12 1
12147 14 1
12148 34 1
12149 5 1
12150 17 1
12151 12 1
12152 7 3
12152 8 7
12152 34 1
12153 9 1
12153 10 1
12154 5 1
12154 38 1
12155 22 1
12155 38 1
12156 19 1
12156 26 2
12156 29 1
12157 2 1
12157 3 6
12157 34 7
12158 34 1
12159 12 1
12159 13 1
12160 14 1
12161 4 5
12161 5 32
12161 18 1
12161 29 10
12161 30 1
12161 34 1
12161 38 48
12162 7 1
12162 8 1
12163 34 1
12164 19 1
12165 4 4
12165 5 18
12165 38 22
12166 26 1
12167 28 4
12168 25 1
12168 29 1
12169 5 1
12169 14 1
12169 18 5
12169 19 11
12169 20 1
12170 18 1
12170 34 1
12171 34 1
12172 38 1
12173 7 2
12173 8 21
12174 23 1
12174 34 1
12174 38 1
12175 3 1
12175 31 8
12176 24 1
12177 29 4
12177 30 1
12178 18 1
12179 17 1
12180 34 1
12181 7 5
12181 8 12
12181 21 1
12182 38 1
12183 1 2
12183 2 40
12183 3 57
12183 34 52
12184 5 1
12185 24 17
12186 34 1
12187 3 1
12187 28 6
12187 29 1
12187 34 1
12188 29 1
12188 31 1
12189 14 1
12190 15 1
12190 26 1
12190 29 1
12191 5 1
12192 12 1
12193 29 29
12193 30 1
12194 3 1
12195 15 1
12196 22 1
12197 26 1
12198 2 1
12199 24 15
12200 18 15
12200 19 23
12200 20 3
12201 19 1
12202 9 19
12202 10 28
12202 11 21
12203 18 1
12203 24 6
12203 26 1
12204 22 1
12205 2 10
12205 3 14
12205 19 1
12205 34 20
12206 3 1
12207 29 2
12208 38 2
12209 3 1
12210 18 1
12211 34 1
12212 24 2
12213 21 1
12214 1 1
12214 2 13
12214 3 22
12214 26 2
12214 34 26
12215 38 1
12216 2 3
12216 3 4
12216 34 4
12217 2 1
12217 3 3
12217 18 1
12217 19 1
12217 20 1
12217 24 1
12217 34 4
12218 10 1
12219 12 1
12220 24 1
12221 4 1
12222 24 12
12223 28 5
12223 29 1
12223 34 1
12224 17 1
12224 18 1
12225 31 1
12226 34 1
12227 24 1
12228 1 2
12228 2 39
12228 3 74
12228 11 1
12228 34 73
12229 3 1
12230 5 1
12230 29 10
12230 30 3
12231 24 2
12231 34 1
12231 38 1
12232 5 1
12232 38 2
12233 2 1
12234 3 1
12235 18 1
12236 5 1
12236 9 12
12236 10 13
12236 11 13
12236 29 19
12237 5 1
12237 34 1
12238 14 1
12238 22 1
12239 34 1
12240 24 11
12241 24 12
12242 8 1
12243 24 12
12244 11 1
12245 38 2
12246 22 1
12246 28 1
12247 5 1
12247 24 9
12248 3 1
12249 26 7
12250 14 1
12251 19 1
12252 26 1
12253 9 3
12253 10 4
12253 11 5
12254 20 1
12255 2 1
12256 19 1
12257 3 1
12257 22 3
12258 2 1
12258 3 1
12259 9 2
12259 10 6
12260 9 1
12260 29 2
12261 19 1
12261 24 1
12262 4 10
12262 5 35
12262 22 1
12262 38 27
12263 4 3
12263 5 10
12263 38 14
12264 38 1
12265 18 1
12266 15 1
12267 24 10
12267 34 1
12268 24 1
12269 34 1
12270 7 2
12270 8 1
12271 11 1
12271 12 3
12271 13 1
12271 14 1
12271 31 1
12272 8 1
12273 3 1
12273 24 1
12274 18 1
12275 12 2
12276 26 2
12277 12 1
12278 9 4
12278 10 4
12278 11 5
12279 19 1
12280 12 1
12281 9 3
12281 10 8
12281 11 12
12282 38 1
12283 18 30
12283 19 45
12283 20 11
12284 30 1
12285 29 1
12286 5 1
12286 34 1
12287 9 1
12287 11 1
12288 38 1
12289 12 12
12289 14 13
12291 29 2
12292 12 1
12292 26 1
12292 28 2
12293 29 1
12294 31 3
12295 18 1
12296 2 1
12296 24 1
12296 28 8
12296 30 1
12297 2 4
12297 3 10
12297 34 13
12298 8 1
12299 12 1
12300 5 1
12301 21 1
12301 22 8
12302 24 1
12303 24 1
12303 31 1
12304 38 1
12305 3 1
12305 28 1
12306 19 1
12306 21 5
12306 22 10
12306 24 1
12306 31 1
12307 1 1
12307 3 8
12307 8 1
12307 31 1
12307 34 8
12308 24 1
12309 2 1
12309 3 1
12309 24 3
12309 29 2
12309 30 1
12309 34 2
12309 38 1
12310 29 9
12310 34 1
12311 38 1
12312 24 1
12313 5 1
12313 8 1
12314 24 6
12315 4 5
12315 5 9
12315 38 16
12316 26 5
12317 5 1
12318 2 1
12318 7 7
12318 8 25
12319 2 1
12320 29 1
12321 3 1
12321 24 1
12322 9 1
12322 24 20
12323 12 1
12324 29 11
12324 30 1
12324 38 1
12325 9 13
12325 10 6
12325 11 18
12326 29 1
12327 20 1
12328 29 1
12329 12 2
12330 5 1
12330 29 8
12331 18 1
12331 19 1
12332 34 1
12333 12 1
12333 24 3
12333 34 1
12334 29 1
12335 7 19
12335 8 29
12335 12 1
12335 15 1
12336 29 1
12337 29 1
12338 2 1
12339 19 1
12340 4 2
12340 5 11
12340 38 13
12341 4 3
12341 5 2
12341 18 1
12341 38 6
12342 23 1
12342 24 19
12343 29 1
12344 5 1
12345 8 1
12345 9 2
12345 10 3
12345 11 4
12345 34 1
12346 3 1
12347 19 1
12348 2 1
12348 26 1
12348 31 1
12349 29 1
12349 30 1
12350 1 1
12350 2 10
12350 3 47
12350 24 1
12350 34 60
12350 38 2
12351 3 1
12352 19 1
12352 29 1
12353 2 6
12353 3 14
12353 9 1
12353 26 1
12353 31 8
12353 34 11
12354 18 6
12354 19 5
12354 20 1
12355 3 1
12355 23 1
12355 24 22
12355 34 1
12356 22 1
12357 24 1
12358 34 1
12359 11 1
12360 34 1
12361 8 2
12362 20 1
12363 18 1
12364 18 6
12364 19 12
12364 20 6
12364 34 1
12365 38 1
12366 21 1
12366 26 1
12366 34 1
12367 38 1
12368 4 1
12369 11 1
12370 4 5
12370 5 19
12370 38 30
12371 5 1
12372 24 3
12373 3 1
12374 15 1
12374 25 1
12374 26 7
12374 34 2
12375 15 2
12376 31 1
12377 28 1
12378 19 1
12379 8 1
12379 34 1
12380 26 5
12381 1 1
12381 2 14
12381 3 17
12381 34 18
12381 38 1
12382 26 1
12383 29 1
12384 34 1
12385 38 1
12386 26 1
12387 4 2
12387 5 12
12387 38 14
12388 2 1
12389 19 1
12389 29 9
12390 29 2
12390 30 1
12391 26 1
12392 21 6
12392 22 3
12392 38 1
12393 1 1
12393 2 1
12393 3 18
12393 28 2
12393 29 1
12393 34 15
12394 17 1
12395 21 2
12395 22 2
12395 38 1
12396 7 1
12396 34 2
12397 2 1
12398 5 1
12399 34 1
12400 24 13
12401 5 1
12402 4 6
12402 5 34
12402 24 1
12402 38 40
12403 1 1
12403 34 3
12404 4 1
12404 5 6
12404 12 1
12404 38 6
12405 7 1
12406 38 1
12407 2 1
12407 38 1
12408 28 2
12409 4 2
12409 5 13
12409 38 13
12410 5 1
12410 16 1
12410 22 1
12410 23 1
12410 24 13
12411 34 1
12412 21 1
12413 3 1
12414 18 4
12414 19 13
12414 20 5
12415 3 2
12415 34 2
12416 2 1
12417 12 8
12417 14 2
12418 1 1
12418 2 25
12418 3 24
12418 25 1
12418 26 5
12418 34 32
12419 3 1
12420 12 14
12420 14 5
12421 24 3
12422 8 1
12423 5 1
12424 24 8
12425 34 1
12426 10 1
12426 34 1
12427 5 1
12428 19 1
12429 7 1
12429 28 2
12430 19 1
12430 29 5
12430 30 1
12431 24 1
12432 34 1
12433 3 2
12433 10 1
12433 19 1
12434 34 1
12435 2 1
12436 4 1
12436 24 14
12436 29 1
12437 3 1
12438 3 1
12438 14 1
12439 2 1
12439 18 1
12440 18 6
12440 19 5
12440 20 1
12440 31 1
12441 28 1
12442 12 1
12442 14 2
12443 10 1
12444 3 1
12445 26 1
12446 4 1
12446 5 2
12446 38 2
12447 3 1
12448 15 2
12448 16 1
12448 17 2
12449 28 2
12450 21 1
12450 38 1
12451 2 20
12451 3 27
12451 18 1
12451 34 41
12452 5 1
12452 25 1
12452 29 2
12453 7 1
12453 24 3
12454 19 1
12455 3 1
12455 12 18
12455 14 12
12456 24 3
12456 31 1
12457 38 1
12458 18 32
12458 19 47
12458 20 16
12459 2 2
12459 3 3
12459 34 1
12460 18 1
12461 10 1
12461 12 1
12462 38 1
12463 18 1
12463 19 1
12464 16 1
12465 3 1
12466 3 1
12467 29 1
12468 19 1
12469 4 3
12469 5 12
12469 38 9
12470 34 1
12471 34 1
12472 4 1
12473 3 1
12474 3 1
12474 18 1
12475 8 1
12476 19 1
12476 29 1
12477 15 1
12478 19 1
12479 15 1
12480 34 1
12481 34 1
12482 34 1
12483 21 11
12483 22 11
12484 5 1
12484 31 1
12485 29 4
12485 30 1
12486 4 1
12486 5 3
12486 38 7
12487 24 18
12488 10 2
12488 26 1
12488 29 6
12489 2 1
12489 12 30
12489 14 9
12489 24 1
12490 5 1
12490 24 16
12491 29 4
12492 24 1
12493 18 1
12493 29 26
12493 30 2
12494 12 1
12494 14 2
12495 7 9
12495 8 5
12496 21 1
12497 21 16
12497 22 14
12498 24 1
12499 3 2
12499 12 1
12499 21 1
12500 2 1
12500 5 1
12500 31 9
12501 22 1
12502 2 9
12502 3 7
12502 25 2
12502 26 4
12502 34 7
12503 24 1
12504 24 8
12505 21 6
12505 22 7
12506 31 1
12507 38 1
12508 3 1
12509 3 1
12510 29 22
12510 30 2
12511 2 1
12512 29 1
12513 34 1
12514 13 1
12515 5 1
12516 10 1
12517 21 11
12517 22 11
12518 5 1
12518 29 10
12518 30 1
12519 28 9
12519 29 16
12520 2 7
12520 3 26
12520 5 1
12520 34 45
12521 4 1
12522 31 1
12523 28 1
12524 12 1
12524 34 1
12525 5 1
12526 3 1
12527 18 1
12527 29 1
12528 24 3
12529 30 1
12530 3 1
12530 31 5
12530 34 1
12531 3 1
12532 24 1
12533 2 1
12534 19 1
12535 4 2
12535 5 8
12535 38 5
12536 2 12
12536 3 24
12536 24 1
12536 26 2
12536 34 22
12537 21 3
12537 22 4
12538 34 1
12539 29 1
12540 3 1
12541 3 1
12541 19 1
12541 24 1
12542 9 1
12542 10 7
12542 11 6
12543 38 1
12544 18 1
12545 4 4
12545 5 22
12545 10 1
12545 28 3
12545 38 22
12546 19 1
12546 28 1
12546 31 6
12547 3 3
12547 5 1
12547 12 1
12548 38 1
12549 34 1
12550 26 6
12551 5 1
12551 24 24
12552 29 17
12552 30 1
12553 4 2
12553 5 2
12553 38 4
12554 24 3
12555 38 1
12556 30 1
12557 4 1
12557 5 3
12557 38 2
12558 5 1
12558 27 1
12558 28 1
12558 34 1
12559 34 2
12560 24 2
12561 24 1
12561 26 2
12561 29 1
12562 2 1
12562 4 1
12562 19 1
12563 22 1
12563 26 1
12563 34 2
12564 24 9
12565 2 1
12566 4 7
12566 5 22
12566 38 21
12567 17 1
12568 2 1
12569 34 1
12570 24 1
12571 18 1
12571 19 1
12572 34 1
12573 9 2
12573 11 1
12574 34 1
12575 3 1
12575 4 6
12575 5 27
12575 38 32
12576 12 1
12576 29 1
12577 20 1
12578 10 1
12578 31 5
12579 28 6
12580 24 6
12581 29 1
12582 8 1
12582 28 1
12582 31 2
12583 2 11
12583 3 33
12583 24 2
12583 29 1
12583 34 33
12584 21 1
12585 9 30
12585 10 33
12585 11 15
12586 18 1
12586 19 7
12586 20 2
12587 34 1
12588 2 3
12588 3 4
12588 34 15
12589 19 1
12589 24 2
12590 34 1
12591 28 1
12592 34 1
12593 24 32
12594 4 8
12594 5 6
12594 11 1
12594 18 4
12594 19 5
12594 20 2
12594 38 19
12595 38 1
12596 4 1
12596 5 2
12596 34 1
12596 38 11
12597 12 1
12597 21 1
12597 28 4
12598 2 1
12599 29 1
12600 2 40
12600 3 68
12600 34 76
12601 21 1
12602 29 28
12602 30 1
12603 16 1
12603 22 1
12603 24 5
12604 21 6
12604 22 11
12605 34 1
12606 2 4
12606 3 7
12606 34 6
12607 11 1
12607 18 12
12607 19 12
12607 20 5
12607 24 1
12608 31 3
12609 21 14
12609 22 9
12609 34 1
12610 12 14
12610 13 1
12610 14 14
12611 29 1
12612 11 1
12613 38 1
12614 4 8
12614 5 10
12614 38 16
12615 5 2
12615 14 1
12615 38 3
12616 34 1
12617 20 1
12618 11 5
12619 5 1
12619 29 22
12619 30 2
12619 34 1
12620 19 2
12621 8 1
12622 3 1
12623 34 1
12624 13 1
12625 20 1
12625 38 1
12626 34 1
12627 29 1
12628 25 2
12628 26 13
12629 34 1
12630 9 4
12630 10 8
12630 11 4
12630 15 4
12630 16 7
12630 17 4
12630 19 1
12631 3 1
12631 24 1
12631 29 9
12631 30 1
12632 2 1
12633 31 1
12634 12 1
12635 31 1
12636 26 4
12636 31 1
12637 19 1
12637 28 1
12638 5 1
12639 18 4
12639 19 2
12640 2 4
12640 3 6
12640 21 1
12640 22 1
12640 34 3
12641 20 1
12641 24 2
12641 28 2
12642 31 1
12643 28 1
12644 19 1
12644 20 1
12645 21 6
12645 22 5
12646 3 1
12646 24 2
12646 31 3
12647 3 1
12648 38 1
12649 7 1
12650 3 1
12651 4 5
12651 5 16
12651 38 17
12652 31 1
12653 3 1
12654 29 1
12655 1 1
12655 2 13
12655 3 30
12655 34 27
12656 4 5
12656 5 29
12656 38 26
12657 8 1
12657 29 2
12658 22 1
12659 29 12
12659 30 1
12660 5 1
12661 28 1
12662 22 1
12663 2 1
12663 38 3
12664 25 1
12665 2 1
12665 12 8
12665 14 2
12666 2 16
12666 3 16
12666 34 26
12667 9 1
12667 29 1
12668 3 1
12669 2 1
12670 18 12
12670 19 20
12670 20 11
12670 22 1
12670 29 15
12671 21 1
12672 19 1
12673 18 1
12674 3 1
12675 8 2
12675 18 2
12675 21 1
12675 34 1
12676 5 1
12676 28 12
12677 29 3
12678 2 1
12679 2 9
12679 3 10
12679 29 18
12679 30 1
12679 34 16
12680 17 1
12681 21 1
12681 26 1
12682 28 5
12683 18 2
12683 19 2
12683 20 2
12684 28 2
12685 12 1
12686 8 1
12687 29 1
12688 2 1
12689 7 1
12690 11 1
12691 29 2
12692 29 10
12692 30 1
12693 28 1
12694 31 2
12695 3 1
12696 14 1
12697 7 1
12697 8 1
12698 26 1
12698 34 1
12699 12 1
12700 9 3
12701 3 1
12702 19 3
12703 19 1
12703 21 6
12703 22 7
12704 3 1
12705 13 1
12706 9 1
12706 25 1
12706 26 8
12707 18 1
12707 29 4
12707 30 1
12707 31 4
12708 2 1
12708 3 1
12709 9 1
12709 31 14
12710 12 7
12710 14 2
12711 12 1
12712 20 1
12713 2 1
12714 28 3
12715 34 1
12716 2 2
12716 3 5
12716 34 4
12717 34 1
12718 18 10
12718 19 13
12718 20 6
12718 21 1
12718 31 2
12718 38 1
12719 5 1
12720 11 1
12720 12 1
12720 14 1
12721 29 1
12722 2 2
12722 3 11
12722 4 1
12722 34 16
12723 3 1
12724 3 1
12724 24 1
12725 9 24
12725 10 43
12725 11 20
12725 22 2
12726 4 2
12726 5 8
12726 12 6
12726 14 1
12726 38 7
12727 2 1
12728 7 1
12728 8 1
12729 12 1
12729 21 4
12729 22 2
12729 24 6
12730 22 1
12730 29 4
12730 30 1
12731 3 1
12731 31 1
12732 2 1
12732 21 1
12733 29 3
12733 30 1
12734 14 1
12735 16 1
12736 4 7
12736 5 33
12736 12 1
12736 14 2
12736 18 11
12736 19 11
12736 20 7
12736 38 42
12737 5 2
12738 9 1
12739 26 1
12740 2 1
12740 29 1
12741 2 11
12741 3 16
12741 34 13
12742 18 1
12742 29 1
12743 2 1
12744 2 1
12745 5 1
12746 12 2
12747 20 1
12748 24 1
12749 24 3
12749 31 3
12750 5 1
12751 20 1
12752 2 1
12752 4 1
12752 5 4
12752 20 1
12752 34 1
12752 38 6
12753 34 1
12754 21 1
12755 16 4
12755 17 6
12756 24 13
12756 34 2
12757 38 1
12758 5 1
12758 29 1
12759 2 1
12760 34 1
12761 5 1
12762 18 5
12762 19 3
12762 20 2
12762 24 1
12762 38 1
12763 3 1
12763 34 1
12764 34 1
12765 3 1
12766 2 1
12767 29 1
12768 18 1
12769 22 1
12770 24 1
12771 12 3
12771 14 1
12772 3 2
12772 28 2
12772 29 34
12772 30 3
12772 31 10
12773 8 1
12773 38 1
12774 5 1
12774 15 17
12774 16 15
12774 17 21
12774 34 1
12775 2 1
12776 17 1
12777 21 1
12777 24 1
12778 38 1
12779 3 1
12779 12 11
12779 14 6
12780 18 1
12781 3 1
12781 19 1
12782 9 1
12783 3 1
12784 3 1
12785 24 1
12786 2 35
12786 3 55
12786 24 1
12786 34 83
12787 22 1
12788 34 1
12789 3 1
12789 8 1
12789 12 2
12790 19 1
12791 16 1
12792 34 1
12793 12 3
12794 8 1
12795 5 1
12796 5 3
12796 38 1
12797 24 1
12798 26 5
12799 2 1
12799 14 1
12799 19 3
12800 28 3
12801 1 2
12801 2 7
12801 3 7
12801 34 12
12802 24 2
12803 34 1
12804 38 1
12805 11 1
12805 18 29
12805 19 43
12805 20 16
12806 21 11
12806 22 6
12807 29 2
12808 28 1
12809 1 2
12809 2 16
12809 3 33
12809 34 37
12810 19 1
12811 34 1
12812 5 1
12813 2 1
12814 2 8
12814 3 28
12814 34 38
12815 29 1
12816 1 2
12816 2 25
12816 3 37
12816 34 47
12817 29 1
12818 22 1
12819 18 1
12819 21 15
12819 22 11
12820 29 5
12821 34 1
12822 3 1
12823 5 1
12824 34 1
12825 2 2
12825 3 11
12825 34 19
12826 38 1
12827 8 1
12827 12 1
12827 21 4
12827 22 6
12828 21 1
12829 11 2
12829 12 1
12829 14 1
12830 21 13
12830 22 6
12831 18 22
12831 19 30
12831 20 10
12832 16 1
12832 34 1
12833 34 1
12834 18 3
12834 19 5
12835 38 1
12837 3 1
12838 26 1
12839 26 5
12840 26 4
12841 9 1
12841 25 1
12841 26 5
12842 21 1
12843 21 2
12843 24 1
12844 3 1
12845 24 1
12846 1 1
12846 2 5
12846 3 11
12846 34 16
12847 31 1
12848 7 7
12848 8 21
12848 22 1
12849 31 2
12849 38 1
12850 2 5
12850 3 17
12850 34 13
12851 28 1
12851 31 1
12851 38 3
12852 38 1
12853 28 1
12854 29 39
12854 30 1
12855 5 1
12855 28 9
12856 22 1
12857 5 1
12857 26 1
12858 28 1
12859 5 1
12859 24 15
12860 18 16
12860 19 20
12860 20 7
12861 14 1
12862 2 4
12862 3 7
12862 34 7
12863 2 1
12863 10 1
12864 19 1
12865 21 13
12865 22 7
12865 24 1
12866 24 2
12867 2 15
12867 3 44
12867 24 1
12867 34 52
12868 8 1
12869 15 1
12869 18 3
12870 34 1
12871 28 5
12871 34 1
12872 5 1
12873 5 1
12874 20 1
12875 10 1
12876 34 1
12877 2 1
12877 7 1
12877 19 1
12878 22 1
12878 34 1
12879 3 1
12880 26 8
12881 2 2
12881 9 17
12881 10 18
12881 11 24
12881 12 1
12881 21 18
12881 22 25
12882 3 1
12883 9 4
12883 10 7
12883 11 4
12884 29 1
12885 2 5
12885 3 3
12885 18 1
12885 34 3
12885 38 1
12886 2 15
12886 3 11
12886 26 1
12886 29 1
12886 34 12
12887 34 1
12888 2 5
12888 3 3
12888 29 5
12888 30 1
12888 34 4
12889 26 3
12890 10 1
12890 18 21
12890 19 20
12890 20 5
12891 21 1
12891 22 1
12892 15 2
12892 16 1
12892 17 2
12893 24 1
12894 24 8
12895 31 1
12896 10 1
12896 29 2
12897 3 1
12898 28 1
12899 38 1
12900 3 1
12901 22 1
12902 14 1
12903 8 1
12903 24 13
12904 29 4
12905 24 3
12906 24 1
12907 3 1
12908 19 1
12909 24 1
12910 1 2
12910 2 9
12910 3 17
12910 34 13
12911 4 13
12911 5 39
12911 10 1
12911 14 1
12911 38 42
12912 18 1
12912 19 5
12912 20 1
12912 34 1
12913 21 10
12913 22 11
12914 31 11
12915 2 1
12916 24 3
12916 31 2
12917 3 1
12918 2 10
12918 3 7
12918 18 12
12918 19 7
12918 34 13
12919 3 1
12919 29 15
12919 30 3
12920 2 2
12920 3 2
12920 34 2
12921 9 10
12921 10 16
12921 11 17
12922 29 1
12922 38 1
12923 1 1
12923 2 15
12923 3 28
12923 34 32
12924 11 1
12924 21 5
12924 22 8
12924 34 1
12925 38 1
12926 3 1
12927 19 1
12928 38 1
12929 14 1
12929 18 16
12929 19 19
12929 20 4
12930 2 1
12930 10 1
12931 24 8
12932 38 1
12933 12 1
12933 24 1
12934 19 1
12935 31 12
12935 38 1
12936 5 8
12936 38 8
12937 31 1
12938 11 1
12939 2 1
12940 18 1
12941 24 1
12942 3 1
12943 34 1
12944 3 1
12945 19 3
12945 22 1
12946 3 1
12946 38 1
12947 18 4
12947 19 14
12947 20 4
12948 29 7
12949 3 2
12949 7 3
12949 8 7
12950 22 1
12951 24 6
12952 30 1
12953 34 1
12954 38 1
12955 24 1
12956 3 1
12957 8 1
12958 4 3
12958 5 10
12958 29 2
12958 38 7
12959 23 1
12959 24 5
12960 34 1
12961 28 1
12962 12 10
12962 14 7
12963 3 1
12963 19 1
12963 34 1
12964 19 1
12965 3 1
12966 17 1
12967 26 1
12968 16 1
12969 10 1
12970 2 14
12970 3 27
12970 31 1
12970 34 36
12971 2 3
12971 3 3
12971 14 1
12971 34 4
12972 19 1
12973 34 1
12974 5 1
12974 29 1
12975 4 1
12976 28 1
12977 21 18
12977 22 18
12977 29 1
12978 16 1
12978 29 5
12979 3 1
12980 38 1
12981 18 1
12981 26 2
12982 4 4
12982 5 9
12982 38 18
12983 17 1
12983 18 3
12983 19 7
12983 38 1
12984 8 1
12985 28 2
12986 12 1
12986 20 1
12986 31 8
12987 3 1
12987 5 1
12988 4 1
12988 5 6
12988 38 6
12989 21 1
12990 4 1
12991 3 1
12991 29 2
12992 25 3
12992 26 19
12993 2 5
12993 3 15
12993 12 1
12993 14 1
12993 21 1
12993 34 21
12994 18 1
12995 30 1
12996 21 1
12997 28 1
12998 3 5
12998 31 1
12998 34 1
12999 5 1
13000 3 2
13000 19 1
13000 24 5
13000 34 1
13001 4 1
13001 5 4
13001 38 4
13002 18 7
13002 19 8
13002 20 5
13003 8 1
13003 12 1
13003 34 1
13004 2 6
13004 3 8
13004 34 8
13005 10 1
13006 28 7
13007 22 1
13007 34 1
13008 14 1
13008 24 9
13009 18 2
13009 19 1
13009 24 1
13010 2 1
13010 34 5
13011 5 1
13012 19 1
13013 2 12
13013 3 33
13013 34 43
13014 38 1
13015 24 1
13016 1 1
13016 3 2
13016 5 3
13016 10 1
13016 12 1
13016 18 1
13016 19 1
13016 24 1
13016 26 1
13016 34 2
13016 38 5
13017 5 1
13018 11 1
13019 26 1
13020 29 19
13020 30 2
13021 2 1
13021 26 1
13021 31 1
13022 4 1
13022 10 1
13023 26 1
13024 31 1
13025 34 1
13026 9 1
13026 10 1
13027 1 1
13027 2 7
13027 3 7
13027 19 1
13027 29 1
13027 34 8
13027 38 2
13028 26 1
13029 34 1
13030 12 1
13031 14 1
13032 3 2
13032 29 1
13032 34 1
13033 28 1
13034 34 1
13035 34 1
13036 2 1
13037 2 9
13037 3 10
13037 5 1
13037 18 1
13037 34 6
13038 2 1
13039 4 3
13039 5 8
13039 38 10
13040 26 1
13040 34 1
13041 24 1
13042 34 1
13043 18 1
13044 24 1
13045 22 1
13046 28 6
13047 2 1
13048 12 1
13049 18 1
13050 3 1
13051 19 1
13052 34 1
13053 22 1
13054 2 6
13054 3 18
13054 34 35
13055 21 19
13055 22 17
13056 24 1
13056 31 4
13056 34 1
13057 18 1
13058 4 9
13058 5 28
13058 38 41
13059 15 1
13060 38 1
13061 14 1
13062 29 8
13062 34 1
13063 10 1
13064 3 1
13065 2 1
13065 3 1
13065 34 4
13066 2 4
13066 3 11
13066 26 1
13066 31 2
13066 34 14
13067 29 15
13067 30 1
13068 18 61
13068 19 74
13068 20 23
13068 24 1
13068 38 1
13069 5 1
13070 9 12
13070 10 21
13070 11 12
13070 34 1
13071 34 1
13072 4 1
13073 14 1
13074 3 2
13075 31 2
13076 18 7
13076 19 4
13077 24 4
13078 18 2
13078 19 2
13078 24 1
13079 28 1
13080 28 2
13081 34 1
13082 4 5
13082 5 8
13082 38 6
13083 5 1
13084 24 12
13085 34 1
13086 1 1
13086 2 6
13086 3 25
13086 34 35
13087 2 1
13088 28 1
13089 2 1
13090 15 4
13090 17 4
13091 18 1
13091 26 2
13091 34 1
13092 34 1
13093 21 5
13093 22 7
13094 4 2
13094 5 1
13094 38 2
13095 4 2
13095 5 23
13095 29 1
13095 38 19
13096 24 9
13097 2 1
13097 34 1
13098 34 1
13099 38 1
13100 19 1
13100 38 2
13101 2 9
13101 3 16
13101 17 1
13101 24 11
13101 31 4
13101 34 26
13102 3 1
13103 5 1
13103 24 4
13104 24 1
13105 12 2
13105 24 1
13105 25 1
13105 26 3
13105 34 1
13106 5 1
13106 29 1
13107 19 1
13107 31 15
13107 34 1
13108 24 1
13109 29 1
13109 34 1
13110 38 1
13111 14 1
13112 2 1
13113 21 1
13114 19 1
13114 29 1
13115 16 1
13116 20 1
13117 21 13
13117 22 11
13118 24 1
13119 23 1
13119 24 3
13119 26 1
13119 29 1
13119 31 4
13120 15 2
13120 16 5
13120 17 2
13120 19 1
13121 24 1
13122 38 1
13123 18 1
13123 24 4
13123 34 1
13124 28 1
13125 29 1
13126 2 5
13126 3 10
13126 34 10
13127 3 1
13127 5 1
13127 9 1
13127 34 1
13127 38 1
13128 3 1
13129 12 5
13129 34 1
13130 18 1
13131 5 1
13131 17 1
13132 11 1
13132 25 1
13132 26 7
13132 29 1
13133 1 2
13133 2 14
13133 3 28
13133 34 23
13133 38 1
13134 18 1
13135 10 1
13136 2 1
13136 26 3
13136 29 1
13137 3 1
13138 38 1
13139 21 1
13139 34 1
13140 18 1
13141 5 1
13142 29 1
13143 22 1
13144 12 1
13145 23 1
13145 24 11
13145 29 4
13145 30 1
13146 21 1
13147 5 1
13148 2 1
13149 4 12
13149 5 50
13149 21 23
13149 22 42
13149 34 1
13149 38 53
13150 2 1
13151 19 1
13151 29 18
13151 30 3
13152 22 1
13153 9 5
13153 10 13
13153 11 6
13153 13 1
13154 34 1
13155 22 1
13156 3 1
13157 29 5
13158 24 8
13159 25 2
13159 26 4
13160 14 2
13161 34 1
13162 7 3
13162 8 5
13163 11 1
13164 29 1
13165 3 1
13166 15 1
13166 31 9
13167 15 1
13167 16 1
13168 18 1
13168 29 2
13169 5 1
13169 29 6
13169 38 1
13170 3 1
13170 21 1
13170 22 1
13170 24 1
13171 28 1
13172 34 1
13173 3 1
13173 5 1
13174 5 1
13175 11 1
13176 18 2
13176 19 2
13176 20 1
13177 4 6
13177 5 23
13177 21 1
13177 38 32
13178 22 1
13178 26 1
13179 5 1
13180 24 14
13181 5 1
13182 5 1
13183 24 1
13184 5 1
13185 26 1
13186 11 1
13187 21 5
13187 22 6
13188 3 2
13188 34 1
13189 24 10
13190 15 22
13190 16 8
13190 17 7
13190 19 3
13191 5 1
13191 15 1
13192 38 1
13193 5 1
13193 38 4
13194 12 1
13194 14 1
13195 21 1
13196 1 1
13196 10 1
13197 29 12
13197 30 1
13198 29 1
13199 2 1
13200 21 1
13201 29 6
13202 34 1
13203 5 1
13203 18 1
13203 19 1
13204 10 3
13204 11 1
13205 26 2
13206 31 7
13207 31 7
13207 34 1
13208 29 1
13209 24 12
13210 2 2
13210 3 1
13210 29 1
13210 34 2
13211 9 10
13211 10 13
13211 11 12
13212 8 1
13213 24 11
13214 38 1
13215 7 1
13215 8 1
13216 24 1
13217 2 1
13218 12 1
13218 24 1
13218 29 1
13219 24 1
13220 2 1
13220 24 1
13221 24 1
13221 29 9
13221 30 1
13222 34 1
13223 21 1
13224 5 2
13225 2 8
13225 3 9
13225 34 20
13226 28 1
13227 2 1
13227 3 1
13227 34 3
13228 18 1
13229 22 1
13230 3 1
13231 4 8
13231 5 30
13231 21 1
13231 38 36
13232 18 2
13232 19 5
13232 20 3
13232 34 1
13233 34 1
13234 29 13
13234 30 3
13235 24 1
13236 29 11
13237 12 1
13237 22 1
13238 38 1
13239 20 1
13240 20 1
13241 18 4
13241 19 7
13241 20 1
13241 38 1
13242 19 1
13243 12 1
13244 5 1
13245 5 1
13246 34 1
13247 10 1
13248 14 1
13249 3 1
13250 3 1
13251 8 1
13252 31 2
13253 8 1
13253 34 1
13254 18 1
13255 18 2
13255 19 5
13255 20 4
13255 29 1
13256 3 1
13256 26 2
13257 20 1
13258 10 1
13259 18 1
13260 29 20
13260 30 1
13261 31 4
13262 29 1
13263 1 1
13263 29 1
13264 5 1
13264 18 1
13265 5 1
13266 29 29
13266 30 4
13267 3 1
13268 34 1
13269 5 1
13269 7 3
13269 8 6
13270 4 1
13270 11 1
13271 5 1
13272 31 1
13273 24 7
13274 14 9
13274 22 1
13274 24 1
13275 4 1
13275 5 8
13275 38 10
13276 24 4
13276 31 7
13277 1 1
13277 2 9
13277 3 14
13277 29 6
13277 30 1
13277 34 9
13278 1 1
13278 2 1
13278 3 9
13278 34 21
13279 29 1
13280 5 18
13280 38 14
13281 5 6
13281 38 4
13282 9 1
13283 10 1
13283 38 1
13284 3 1
13285 2 1
13285 18 5
13285 19 8
13285 20 5
13286 8 3
13287 21 1
13287 24 16
13288 5 1
13289 18 3
13289 19 7
13289 20 1
13290 18 1
13291 5 1
13291 31 1
13292 4 2
13292 5 22
13292 38 18
13293 5 5
13293 38 10
13294 31 1
13295 5 1
13296 14 2
13296 22 1
13296 24 4
13297 34 1
13298 29 5
13299 3 1
13299 29 1
13300 3 1
13301 24 1
13302 18 1
13302 19 2
13303 29 1
13304 14 1
13305 5 1
13306 1 1
13306 2 22
13306 3 36
13306 34 27
13307 8 1
13308 2 1
13309 24 2
13310 2 1
13310 38 1
13311 1 1
13311 2 10
13311 3 15
13311 31 2
13311 34 15
13312 34 1
13313 38 1
13314 29 1
13314 31 5
13314 34 1
13315 29 1
13316 3 1
13317 9 7
13317 10 9
13317 11 6
13318 16 1
13319 21 1
13320 38 1
13321 24 24
13321 38 1
13322 21 15
13322 22 10
13323 19 1
13324 7 1
13325 12 20
13325 14 19
13325 18 1
13326 34 1
13327 29 14
13327 30 1
13327 34 1
13328 34 1
13329 12 1
13329 34 1
13330 11 1
13330 31 10
13331 29 14
13331 30 1
13332 29 1
13333 29 1
13334 3 1
13335 31 1
13336 29 14
13336 30 1
13336 31 1
13336 34 1
13337 3 1
13338 5 1
13338 19 1
13339 2 1
13339 12 1
13340 28 6
13340 34 1
13341 22 1
13342 38 4
13343 22 1
13344 12 13
13344 14 9
13345 8 1
13346 29 12
13346 30 3
13347 34 1
13348 12 1
13348 24 1
13348 26 8
13349 20 1
13350 18 1
13351 25 1
13352 12 1
13352 14 1
13352 21 6
13352 22 9
13353 25 1
13353 26 5
13354 34 1
13355 28 2
13355 29 6
13356 2 1
13356 24 3
13357 24 1
13358 29 10
13358 30 1
13359 34 1
13360 2 1
13361 5 1
13362 4 2
13362 5 14
13362 31 1
13362 38 33
13363 2 7
13363 3 13
13363 34 13
13364 5 1
13365 28 2
13366 4 5
13366 5 16
13366 38 27
13367 18 4
13367 19 1
13367 20 1
13367 34 1
13368 21 2
13368 22 3
13369 21 1
13370 38 1
13371 28 5
13372 4 1
13373 3 1
13374 3 1
13374 12 4
13374 14 3
13375 2 2
13375 4 1
13375 5 1
13375 10 1
13375 24 1
13375 29 1
13375 38 1
13376 10 1
13377 15 18
13377 16 10
13377 17 13
13378 23 1
13378 24 15
13378 34 1
13379 18 3
13380 34 1
13381 34 1
13382 19 1
13383 12 1
13384 31 2
13385 28 1
13386 3 1
13386 24 1
13387 12 4
13388 3 1
13389 2 14
13389 3 34
13389 34 39
13390 28 4
13391 3 1
13391 12 6
13391 14 3
13392 31 1
13393 23 2
13393 24 13
13393 38 1
13394 15 1
13395 25 1
13395 26 1
13395 34 1
13396 5 1
13397 3 1
13398 8 1
13399 29 1
13400 28 1
13400 31 1
13401 3 1
13402 5 1
13403 34 1
13404 3 2
13404 34 1
13405 24 6
13406 17 1
13406 34 1
13407 12 1
13407 22 2
13408 3 1
13409 3 1
13409 31 7
13410 18 1
13410 21 7
13410 22 9
13411 26 1
13412 24 1
13413 21 1
13414 29 5
13415 21 11
13415 22 2
13415 38 1
13416 21 1
13416 22 1
13417 14 1
13417 19 1
13417 24 1
13417 34 1
13418 9 1
13419 34 1
13420 24 1
13420 28 5
13421 18 5
13421 19 3
13421 20 2
13422 31 2
13423 34 1
13424 4 1
13424 5 1
13424 38 3
13425 29 7
13426 20 1
13426 28 2
13427 3 1
13427 4 17
13427 5 63
13427 11 1
13427 18 1
13427 29 1
13427 34 2
13427 38 53
13428 4 1
13428 5 6
13428 38 11
13429 1 1
13430 3 1
13430 5 1
13430 12 18
13430 14 5
13431 24 23
13432 9 1
13433 5 1
13433 29 22
13433 30 2
13433 34 1
13434 4 2
13434 5 23
13434 38 20
13435 3 1
13436 24 1
13437 10 4
13437 11 1
13438 10 1
13439 34 1
13440 38 1
13441 5 1
13442 22 1
13443 8 1
13444 38 1
13445 3 1
13446 9 22
13446 10 52
13446 11 33
13446 19 1
13447 11 1
13448 15 10
13448 16 9
13448 17 12
13449 28 7
13450 24 23
13451 4 3
13451 5 2
13451 38 2
13452 34 2
13453 31 1
13454 28 1
13454 29 3
13455 22 1
13456 24 9
13457 2 1
13457 3 1
13457 15 3
13457 16 2
13457 17 1
13458 23 2
13458 24 4
13459 11 1
13460 24 8
13461 29 4
13462 10 1
13463 2 2
13463 3 13
13463 34 8
13464 29 2
13465 24 2
13466 2 9
13466 3 18
13466 34 21
13467 34 1
13468 29 7
13469 21 14
13469 22 6
13470 12 1
13471 2 1
13471 3 1
13472 3 1
13473 38 1
13474 5 1
13474 12 1
13475 9 1
13475 10 1
13476 4 4
13476 5 14
13476 24 4
13476 38 14
13477 12 37
13477 13 1
13477 14 17
13478 24 1
13479 22 1
13480 9 1
13481 24 12
13482 21 3
13482 22 8
13483 29 18
13483 30 2
13484 9 1
13484 10 4
13484 11 1
13484 19 1
13485 29 1
13486 19 1
13486 21 1
13486 34 1
13487 4 2
13487 5 11
13487 38 18
13488 3 1
13488 5 1
13489 18 1
13490 3 1
13490 16 1
13491 22 1
13492 5 1
13493 34 1
13494 3 1
13494 12 13
13494 13 1
13494 14 3
13495 21 3
13496 34 1
13497 2 5
13497 3 1
13497 34 4
13498 3 1
13498 34 1
13499 5 1
13499 11 1
13499 38 3
13500 21 1
13501 29 13
13501 30 1
13502 31 1
13503 2 1
13503 24 14
13504 34 1
13504 38 1
13505 15 1
13505 20 1
13506 29 1
13507 21 17
13507 22 9
13508 7 1
13509 12 3
13509 14 1
13510 22 1
13510 34 1
13511 10 1
13512 24 13
13512 29 1
13512 34 1
13513 7 2
13513 8 12
13514 5 13
13514 38 9
13515 15 4
13515 17 1
13516 7 2
13516 8 5
13516 38 1
13517 2 1
13518 34 2
13519 2 4
13519 3 5
13519 28 2
13519 34 11
13520 24 2
13521 15 1
13522 18 5
13522 19 2
13522 20 1
13523 31 2
13524 24 6
13525 12 1
13526 15 12
13526 16 7
13526 17 11
13526 30 1
13527 8 1
13527 12 1
13528 11 1
13529 15 3
13529 16 4
13529 17 4
13529 31 19
13529 34 1
13530 9 1
13530 10 2
13531 38 1
13532 11 1
13533 9 2
13533 10 1
13533 26 1
13533 34 1
13534 34 1
13535 8 1
13536 24 18
13537 18 2
13537 19 6
13537 20 2
13538 3 1
13538 34 1
13539 2 1
13540 29 6
13540 30 1
13541 5 1
13541 11 1
13541 15 2
13541 16 2
13542 1 1
13543 22 1
13544 3 1
13545 2 1
13545 3 3
13545 30 1
13545 34 5
13546 3 1
13547 12 2
13548 12 1
13548 13 1
13549 1 2
13549 2 13
13549 3 33
13549 29 1
13549 34 42
13549 38 1
13550 14 1
13550 24 1
13551 14 2
13552 22 1
13553 12 1
13553 21 33
13553 22 26
13553 24 1
13554 21 1
13555 29 6
13555 34 1
13556 3 1
13556 5 1
13556 29 1
13557 24 1
13558 24 1
13559 22 1
13560 7 1
13561 3 1
13562 5 1
13562 31 2
13563 2 1
13563 9 1
13564 31 1
13565 8 1
13566 12 1
13566 14 1
13566 18 1
13567 24 1
13568 20 1
13569 29 1
13569 31 1
13570 31 1
13571 9 1
13571 10 9
13571 11 4
13571 24 1
13571 29 1
13571 34 1
13572 8 1
13573 28 2
13574 31 1
13575 34 1
13576 3 1
13577 18 4
13577 19 4
13577 20 5
13578 5 1
13579 9 1
13579 18 1
13579 26 1
13580 9 1
13580 29 1
13581 5 1
13581 24 1
13582 34 1
13583 12 1
13584 2 1
13585 14 1
13586 10 1
13587 4 3
13587 5 3
13587 24 1
13587 29 1
13587 38 5
13588 12 1
13589 5 1
13590 34 1
13591 19 1
13592 28 2
13593 22 1
13593 27 1
13593 28 2
13594 11 1
13595 3 1
13595 21 1
13596 31 6
13597 26 1
13598 5 1
13598 20 1
13599 28 2
13600 2 6
13600 3 6
13600 34 8
13601 29 4
13602 5 1
13603 12 2
13603 14 3
13604 3 1
13604 31 1
13605 4 2
13605 38 1
13606 3 1
13606 8 1
13607 29 6
13608 5 1
13608 26 1
13609 18 1
13610 19 1
13610 26 6
13611 5 6
13611 38 4
13612 5 1
13613 3 2
13613 9 1
13613 10 2
13613 11 2
13614 20 1
13615 31 1
13616 2 1
13617 24 1
13618 7 3
13619 16 1
13620 24 4
13620 38 1
13621 34 1
13622 3 1
13623 3 3
13623 9 1
13623 11 1
13623 14 1
13623 15 1
13623 20 1
13623 21 1
13623 22 1
13623 28 1
13623 29 1
13623 34 3
13623 38 2
13624 24 1
13624 31 10
13625 21 17
13625 22 12
13626 1 1
13626 2 6
13626 3 27
13626 34 43
13627 38 1
13628 34 1
13629 2 2
13629 3 5
13629 34 4
13630 2 10
13630 3 12
13630 10 1
13630 23 1
13630 24 7
13630 31 3
13630 34 13
13631 3 1
13631 29 13
13631 30 1
13632 18 1
13632 24 1
13633 8 1
13633 12 1
13633 14 3
13634 12 1
13635 31 11
13635 38 1
13636 24 1
13637 12 3
13637 26 1
13638 7 2
13639 2 1
13639 24 4
13640 3 1
13640 9 16
13640 10 16
13640 11 14
13641 3 1
13641 29 9
13641 30 1
13642 7 1
13642 8 4
13643 20 1
13643 21 16
13643 22 17
13643 34 3
13644 34 1
13644 38 1
13645 4 4
13645 5 10
13645 8 1
13645 38 16
13646 26 1
13646 28 3
13647 24 1
13648 21 1
13649 3 1
13649 24 25
13650 18 20
13650 19 17
13650 20 9
13650 29 1
13650 31 1
13650 38 1
13651 16 1
13651 17 1
13651 38 1
13652 38 1
13653 28 10
13653 38 1
13654 3 1
13654 7 9
13654 8 22
13654 14 1
13655 19 1
13656 29 1
13656 34 1
13657 24 1
13658 4 7
13658 5 16
13658 38 17
13659 16 1
13660 12 8
13660 14 7
13660 18 1
13661 3 1
13661 24 1
13662 2 5
13662 3 3
13662 34 3
13663 29 6
13663 38 1
13664 28 3
13665 4 5
13665 5 14
13665 38 22
13666 3 1
13666 28 3
13667 5 2
13667 38 5
13668 3 1
13669 4 3
13669 5 12
13669 38 23
13670 19 1
13670 29 1
13671 3 1
13672 5 1
13673 11 1
13674 31 1
13675 31 11
13675 34 1
13676 34 1
13677 38 1
13678 25 1
13679 11 1
13680 18 1
13681 4 1
13681 5 6
13681 29 1
13681 34 1
13681 38 2
13682 5 1
13683 3 1
13683 29 8
13684 5 4
13684 21 1
13684 22 3
13684 38 3
13685 3 1
13686 5 10
13686 28 1
13686 38 23
13687 5 1
13687 38 1
13688 3 1
13688 5 1
13689 22 1
13689 34 1
13690 3 1
13691 4 1
13691 5 2
13691 31 1
13691 38 5
13692 24 1
13693 3 1
13693 21 1
13693 29 1
13693 34 2
13694 10 1
13695 5 1
13696 3 2
13696 38 1
13697 3 1
13698 28 1
13699 18 1
13700 18 23
13700 19 15
13700 20 2
13700 22 1
13701 24 1
13702 2 1
13702 18 9
13702 19 9
13702 20 10
13703 34 1
13704 5 1
13704 21 1
13705 5 1
13705 21 15
13705 22 18
13706 4 3
13706 5 18
13706 18 7
13706 19 6
13706 20 5
13706 38 14
13707 3 1
13708 19 1
13709 3 1
13710 15 7
13710 16 5
13710 17 14
13710 34 1
13711 18 7
13711 19 6
13711 20 1
13712 3 1
13712 21 1
13712 28 1
13713 16 1
13713 24 14
13714 8 1
13714 11 1
13714 16 1
13715 24 2
13716 15 1
13717 12 1
13718 10 1
13719 3 1
13720 29 1
13721 24 1
13722 19 1
13723 19 1
13724 2 1
13724 31 1
13724 34 1
13725 1 1
13725 2 9
13725 3 18
13725 34 29
13726 3 1
13726 26 1
13726 29 1
13727 23 1
13727 24 10
13727 28 1
13728 29 1
13728 38 1
13729 34 1
13730 15 1
13730 21 4
13730 22 2
13731 29 1
13732 20 1
13733 3 1
13733 12 38
13733 14 28
13733 22 1
13734 21 1
13735 5 1
13736 12 6
13736 14 3
13737 24 7
13737 31 2
13738 2 1
13739 11 1
13740 24 3
13741 21 1
13741 34 1
13742 2 7
13742 3 9
13742 34 18
13743 12 3
13743 13 1
13743 14 7
13743 19 1
13744 2 1
13744 5 11
13744 10 1
13744 14 1
13744 31 16
13744 33 1
13744 38 13
13745 31 6
13745 38 1
13746 38 1
13747 5 1
13748 1 2
13748 2 11
13748 3 16
13748 34 29
13749 19 1
13749 28 9
13749 31 3
13750 19 1
13751 5 1
13751 31 2
13752 19 1
13753 29 9
13753 30 1
13753 34 1
13754 21 11
13754 22 9
13755 26 2
13755 29 2
13756 19 1
13757 34 1
13758 28 1
13759 10 1
13760 16 1
13761 34 1
13762 24 1
13763 18 1
13763 21 2
13763 22 1
13764 5 1
13764 28 5
13764 38 1
13765 3 1
13765 4 3
13765 5 10
13765 31 1
13765 38 12
13766 15 7
13766 16 2
13766 17 2
13766 22 1
13767 34 1
13768 5 1
13769 28 2
13770 4 1
13771 3 1
13772 22 1
13773 24 2
13774 9 1
13774 31 20
13774 38 1
13775 12 1
13775 24 1
13775 26 10
13776 2 1
13777 18 1
13777 19 1
13777 20 2
13777 34 1
13778 19 1
13779 24 1
13780 5 7
13780 38 20
13781 16 1
13782 3 1
13783 38 1
13784 5 1
13785 19 1
13786 18 33
13786 19 51
13786 20 21
13787 5 1
13787 12 1
13787 24 1
13788 24 3
13789 28 1
13790 5 1
13791 26 4
13791 29 4
13791 30 2
13792 3 1
13793 2 1
13793 3 2
13794 21 1
13795 34 2
13796 18 1
13797 2 1
13798 24 4
13798 28 1
13799 29 1
13800 5 1
13801 5 1
13802 5 1
13803 2 1
13804 12 7
13804 14 1
13805 24 4
13805 30 1
13806 22 1
13807 24 7
13808 4 7
13808 5 29
13808 22 1
13808 38 25
13809 38 1
13810 17 1
13811 5 1
13812 17 1
13812 19 1
13812 22 1
13813 31 1
13814 5 1
13815 18 10
13815 19 9
13815 20 3
13815 21 3
13815 22 6
13816 24 7
13817 19 1
13817 24 5
13818 2 10
13818 3 8
13818 5 1
13818 11 1
13818 25 2
13818 26 2
13818 34 10
13819 31 1
13820 12 2
13821 11 1
13821 18 1
13822 34 1
13823 20 2
13824 34 1
13825 5 1
13825 9 1
13826 34 1
13827 9 5
13827 10 10
13827 11 10
13828 38 1
13829 5 1
13829 10 1
13830 29 6
13831 21 6
13831 22 1
13832 38 1
13833 3 1
13833 24 6
13834 5 1
13835 26 1
13836 3 1
13836 5 12
13836 38 7
13837 2 1
13837 3 1
13838 24 4
13838 25 1
13839 24 1
13840 5 2
13840 38 3
13841 29 1
13842 38 1
13843 23 1
13843 24 4
13844 24 1
13845 15 10
13845 16 2
13845 17 5
13846 38 1
13847 12 1
13848 1 1
13848 2 17
13848 3 23
13848 21 1
13848 25 1
13848 34 27
13849 18 3
13849 19 3
13849 20 6
13850 4 2
13850 5 5
13850 38 4
13851 15 1
13852 3 1
13852 8 1
13853 24 1
13853 34 1
13854 18 72
13854 19 63
13854 20 26
13855 5 2
13856 29 2
13857 29 28
13857 30 2
13857 34 1
13858 5 1
13858 38 1
13859 22 1
13860 3 1
13860 19 1
13860 31 1
13860 34 1
13861 26 1
13862 3 1
13863 3 1
13863 14 1
13863 21 3
13863 22 6
13864 24 21
13865 1 1
13865 2 17
13865 3 30
13865 26 3
13865 34 31
13866 21 1
13867 21 9
13867 22 7
13868 5 1
13869 34 1
13870 21 48
13870 22 22
13871 2 5
13871 3 12
13871 5 1
13871 34 15
13872 17 1
13873 28 4
13873 31 1
13874 38 1
13875 2 1
13876 1 2
13876 2 16
13876 3 53
13876 34 59
13877 5 1
13878 28 1
13879 2 1
13879 3 5
13879 34 6
13880 24 1
13881 20 1
13882 38 1
13883 21 1
13884 3 1
13884 4 1
13884 20 1
13884 21 1
13884 29 1
13884 31 1
13885 21 2
13885 22 2
13886 24 1
13887 5 1
13888 22 1
13888 34 1
13889 21 1
13890 19 1
13891 18 1
13891 24 1
13892 21 1
13893 29 1
13894 3 1
13895 7 5
13895 8 15
13896 9 1
13896 10 1
13896 19 1
13897 2 1
13898 24 21
13899 11 1
13900 4 2
13900 5 9
13900 38 11
13901 23 1
13902 2 1
13902 3 1
13903 31 2
13904 31 1
13905 3 1
13906 16 1
13907 4 6
13907 5 13
13907 38 15
13908 2 2
13909 34 1
13910 28 2
13911 20 1
13912 31 1
13913 10 1
13913 26 1
13914 3 2
13915 29 1
13916 3 1
13916 31 1
13917 31 6
13918 34 1
13919 9 1
13920 15 12
13920 16 9
13920 17 4
13921 38 1
13922 22 1
13923 7 6
13923 8 9
13924 34 1
13925 12 9
13925 13 1
13925 14 3
13925 34 1
13926 18 1
13926 24 1
13927 4 1
13927 5 1
13927 38 6
13928 2 2
13928 3 2
13928 34 2
13929 29 21
13929 30 3
13930 34 1
13931 38 1
13932 28 1
13932 29 1
13933 25 1
13933 26 4
13934 7 3
13934 8 7
13934 22 1
13934 29 15
13934 30 1
13935 20 1
13936 24 8
13936 34 1
13937 33 1
13938 3 1
13938 31 24
13939 38 1
13940 34 1
13941 18 5
13941 19 6
13941 20 2
13942 3 1
13943 5 1
13944 5 1
13944 21 12
13944 22 6
13945 19 1
13946 22 1
13947 21 1
13948 4 16
13948 5 47
13948 38 48
13949 19 1
13950 11 1
13950 18 1
13951 23 1
13951 24 3
13952 3 1
13953 2 1
13954 8 1
13955 34 1
13956 26 1
13957 12 1
13957 17 1
13957 29 3
13958 5 1
13959 29 1
13959 31 9
13959 33 1
13960 15 1
13961 34 1
13962 3 1
13963 11 1
13964 29 17
13965 29 4
13966 10 1
13967 31 4
13968 18 23
13968 19 12
13968 20 5
13968 22 1
13969 19 1
13969 29 19
13969 30 1
13969 34 1
13970 31 9
13971 31 1
13972 24 43
13972 25 10
13972 26 27
13972 29 1
13973 24 2
13974 12 1
13974 29 23
13974 30 2
13975 28 4
13976 34 1
13977 7 1
13977 34 1
13978 3 1
13979 31 1
13980 17 1
13981 34 1
13982 2 2
13982 3 5
13982 34 6
13983 3 1
13983 34 1
13984 24 1
13985 2 1
13985 3 3
13985 34 4
13986 7 4
13986 8 12
13987 4 2
13987 5 4
13987 29 1
13988 5 1
13989 2 1
13989 12 1
13989 14 5
13989 26 1
13989 34 1
13990 15 1
13991 10 1
13991 21 1
13991 24 1
13992 22 1
13992 31 1
13993 24 1
13993 28 4
13993 29 1
13994 12 1
13995 24 2
13996 2 1
13996 3 1
13997 28 1
13998 22 1
13999 18 54
13999 19 58
13999 20 29
14000 2 10
14000 3 8
14000 34 12
14001 18 1
14001 21 1
14002 2 3
14002 3 3
14002 34 9
14003 5 1
14003 19 1
14004 19 1
14005 38 1
14006 28 1
14007 9 3
14007 10 2
14007 11 2
14007 22 1
14008 2 3
14008 3 12
14008 34 3
14009 26 1
14010 8 1
14010 12 2
14011 24 1
14011 38 1
14012 3 1
14012 30 1
14012 31 3
14012 38 1
14013 11 1
14013 26 1
14014 28 1
14015 29 1
14015 31 3
14016 12 1
14017 29 2
14018 38 1
14019 28 1
14020 12 2
14020 13 1
14020 14 2
14020 15 2
14020 16 3
14020 17 5
14020 31 1
14021 5 1
14022 24 1
14023 29 1
14024 24 9
14024 38 1
14025 2 1
14025 28 1
14026 19 1
14027 19 1
14028 34 1
14029 7 1
14030 21 1
14030 22 1
14030 24 1
14030 25 1
14030 26 20
14030 29 1
14031 26 7
14032 9 1
14032 18 26
14032 19 48
14032 20 11
14032 24 8
14032 34 1
14033 21 7
14033 22 2
14034 10 1
14034 29 14
14034 30 2
14035 12 1
14036 29 1
14037 24 6
14038 4 1
14039 24 8
14040 3 1
14040 4 1
14041 3 1
14041 4 1
14041 29 15
14041 30 3
14042 23 1
14042 24 29
14043 34 1
14044 26 1
14045 12 32
14045 14 17
14046 24 1
14047 26 8
14048 19 1
14049 34 1
14050 1 1
14050 2 5
14050 3 4
14050 34 8
14051 38 1
14053 21 13
14053 22 12
14054 24 13
14055 24 1
14056 3 1
14057 1 2
14057 2 17
14057 3 23
14057 5 1
14057 29 2
14057 34 43
14058 29 14
14058 30 1
14059 34 1
14060 38 1
14061 15 1
14061 18 1
14061 24 1
14061 34 1
14062 22 1
14062 24 1
14063 12 1
14064 11 1
14065 5 1
14066 3 1
14067 24 6
14068 26 7
14069 3 2
14069 14 1
14069 15 1
14069 17 1
14069 19 2
14069 21 1
14069 24 1
14069 29 2
14069 31 1
14069 34 2
14069 38 1
14070 21 1
14070 29 20
14070 30 2
14071 10 1
14071 11 1
14071 24 1
14071 29 1
14071 31 1
14072 20 2
14073 22 1
14074 34 1
14075 34 1
14076 21 1
14077 12 1
14078 9 14
14078 10 13
14078 11 13
14079 15 1
14079 38 1
14080 11 1
14081 22 1
14082 29 1
14083 4 6
14083 5 29
14083 38 31
14084 14 1
14085 31 9
14085 33 1
14085 34 1
14086 20 1
14087 1 1
14087 2 4
14087 3 11
14087 5 1
14087 31 4
14087 34 20
14088 5 1
14088 12 2
14088 24 3
14089 34 1
14090 24 3
14090 29 7
14091 24 1
14091 25 1
14091 29 3
14091 38 1
14092 34 1
14093 38 1
14094 24 1
14095 38 1
14096 3 1
14097 38 1
14098 34 1
14099 1 1
14099 2 69
14099 3 66
14099 24 5
14099 26 1
14099 31 1
14099 34 75
14100 2 1
14101 19 1
14101 28 1
14101 31 5
14102 1 2
14102 2 16
14102 3 31
14102 26 1
14102 34 29
14103 1 2
14103 2 21
14103 3 35
14103 34 43
14104 11 1
14104 28 11
14105 24 3
14105 38 1
14106 29 6
14106 30 1
14106 31 2
14107 18 3
14107 19 8
14107 20 4
14108 19 1
14109 28 4
14109 29 1
14109 31 1
14110 18 21
14110 19 28
14110 20 1
14110 29 1
14111 5 1
14111 29 1
14112 24 5
14113 2 1
14113 24 19
14114 18 32
14114 19 35
14114 20 14
14114 24 1
14114 38 1
14115 34 1
14115 38 1
14116 10 1
14117 4 1
14117 5 4
14117 38 4
14118 34 1
14119 10 1
14120 4 1
14120 24 5
14121 2 1
14121 15 1
14121 29 1
14122 9 12
14122 10 19
14122 11 19
14123 3 1
14124 24 1
14125 3 1
14125 10 1
14125 11 1
14125 18 11
14125 19 5
14125 20 8
14126 3 1
14127 2 3
14127 3 7
14127 21 1
14127 34 24
14128 28 1
14129 5 1
14130 8 1
14131 12 1
14132 23 1
14132 24 17
14133 1 1
14133 2 13
14133 3 4
14133 34 13
14134 2 1
14135 18 1
14135 34 1
14136 9 9
14136 10 10
14136 11 2
14136 18 3
14136 19 1
14136 21 10
14136 22 6
14137 23 1
14137 24 2
14138 9 1
14139 29 1
14140 26 1
14141 29 3
14142 5 1
14142 19 1
14142 24 1
14142 29 13
14142 30 1
14143 31 2
14144 14 1
14144 31 1
14145 1 2
14145 2 23
14145 3 80
14145 24 1
14145 28 1
14145 34 85
14146 34 1
14147 8 1
14147 24 1
14147 28 7
14147 29 1
14148 24 3
14149 12 16
14149 14 7
14150 29 5
14151 34 1
14152 4 1
14152 5 17
14152 38 18
14153 17 1
14154 29 1
14155 10 1
14155 19 1
14155 20 1
14156 15 6
14156 16 2
14156 17 5
14156 21 1
14157 29 1
14158 21 2
14158 22 1
14159 5 1
14160 16 1
14161 24 4
14162 19 1
14162 21 1
14162 34 1
14163 21 1
14164 29 4
14164 30 1
14165 22 1
14166 19 1
14167 20 1
14168 14 1
14168 21 23
14168 22 22
14169 31 1
14170 4 10
14170 5 48
14170 38 46
14171 9 4
14171 10 2
14171 11 4
14171 21 1
14171 31 3
14172 23 1
14172 24 2
14172 28 4
14172 31 2
14173 24 1
14174 24 3
14175 3 1
14175 24 20
14176 38 1
14177 15 1
14177 18 3
14177 19 1
14177 20 1
14178 21 1
14179 3 1
14180 5 1
14181 19 3
14182 8 1
14182 22 1
14183 29 17
14183 30 4
14184 25 1
14184 26 13
14185 5 1
14185 12 9
14185 14 4
14185 24 1
14186 29 1
14187 2 1
14188 21 15
14188 22 14
14189 22 1
14190 5 2
14190 9 3
14190 10 5
14190 12 1
14190 14 4
14190 38 3
14191 2 1
14191 3 22
14191 25 1
14191 26 5
14191 31 1
14191 34 42
14192 11 1
14193 5 1
14193 24 1
14194 29 7
14194 30 2
14195 5 1
14196 2 1
14197 19 1
14198 18 1
14199 5 2
14200 18 53
14200 19 60
14200 20 14
14200 34 1
14201 9 2
14201 10 7
14201 11 5
14201 12 1
14202 34 1
14203 2 1
14203 12 1
14203 21 1
14204 23 2
14204 24 18
14205 24 7
14206 5 1
14206 38 1
14207 18 1
14207 24 1
14207 29 8
14207 30 3
14207 31 1
14208 3 1
14208 5 1
14208 21 2
14209 24 1
14210 18 3
14210 19 4
14210 20 3
14211 12 10
14211 13 1
14211 14 7
14212 3 1
14212 24 1
14212 26 1
14212 34 2
14213 24 1
14214 34 1
14215 5 1
14216 28 1
14216 34 1
14217 38 1
14218 31 3
14219 31 1
14220 3 1
14221 38 1
14222 9 1
14222 18 2
14223 4 1
14223 5 2
14223 12 3
14223 14 5
14223 38 4
14224 18 1
14225 17 1
14226 29 15
14226 30 1
14226 34 1
14228 26 1
14228 28 3
14228 29 1
14228 34 2
14229 31 10
14230 29 1
14231 19 1
14232 9 1
14232 10 1
14232 19 1
14233 29 1
14234 24 7
14235 9 14
14235 10 41
14235 11 24
14236 7 3
14236 8 2
14237 5 1
14237 24 1
14237 26 2
14237 34 1
14238 19 1
14239 2 1
14239 12 22
14239 13 1
14239 14 16
14239 29 1
14240 9 1
14241 21 1
14241 34 1
14242 8 1
14242 24 1
14242 28 1
14243 2 1
14244 31 5
14244 34 1
14245 22 1
14246 10 1
14246 24 2
14246 28 2
14247 7 5
14247 8 8
14248 12 1
14249 3 1
14250 12 1
14251 5 1
14251 21 1
14252 24 7
14253 5 1
14253 15 1
14253 34 1
14254 10 1
14255 24 1
14256 24 15
14257 29 6
14258 24 1
14259 2 11
14259 3 10
14259 34 14
14260 3 1
14261 21 1
14261 22 1
14262 38 1
14263 5 1
14263 8 1
14263 29 33
14263 30 1
14264 3 1
14265 4 8
14265 5 28
14265 38 35
14266 38 1
14267 2 2
14267 3 3
14267 34 1
14268 2 1
14268 3 2
14268 29 2
14268 34 3
14269 34 1
14270 2 9
14270 3 8
14270 34 5
14271 29 5
14272 34 1
14272 38 1
14273 34 1
14274 28 3
14274 34 1
14275 1 2
14275 2 18
14275 3 18
14275 34 21
14276 31 2
14277 28 4
14278 18 1
14279 34 1
14280 2 1
14281 28 1
14282 20 1
14283 22 1
14284 19 1
14284 25 1
14284 26 6
14284 28 1
14285 28 4
14286 3 1
14286 31 27
14287 10 1
14288 16 1
14288 19 1
14289 38 1
14290 10 1
14290 12 23
14290 14 16
14291 10 1
14292 15 1
14293 31 3
14294 3 1
14295 5 1
14295 26 1
14296 5 1
14296 18 7
14296 19 7
14296 20 3
14297 1 1
14297 3 2
14297 34 3
14298 34 1
14299 12 1
14300 21 1
14301 9 1
14301 10 1
14301 11 1
14302 9 1
14303 9 1
14304 4 2
14304 29 1
14305 18 1
14306 18 9
14306 19 4
14306 20 1
14306 34 1
14307 21 2
14307 24 4
14307 26 1
14308 2 4
14308 3 5
14308 34 7
14309 29 1
14310 3 1
14310 23 1
14310 24 2
14310 29 3
14310 34 2
14311 3 1
14312 3 1
14312 34 1
14313 18 1
14314 2 1
14314 18 23
14314 19 21
14314 20 9
14315 5 1
14316 24 2
14317 4 4
14317 5 27
14317 38 22
14318 3 1
14319 11 1
14320 2 16
14320 3 20
14320 29 3
14320 34 17
14321 3 1
14322 26 2
14322 28 2
14323 1 1
14323 2 15
14323 3 16
14323 22 1
14323 29 1
14323 34 10
14324 3 1
14324 24 1
14325 15 29
14325 16 21
14325 17 32
14326 18 1
14326 19 5
14326 20 2
14327 38 1
14328 29 1
14329 5 1
14329 9 6
14329 10 19
14329 11 9
14329 38 3
14330 29 4
14331 18 1
14332 15 1
14333 3 1
14334 3 2
14334 34 8
14335 1 1
14335 2 42
14335 3 28
14335 34 39
14336 31 1
14337 3 1
14337 4 2
14337 5 6
14337 38 12
14338 4 1
14339 3 1
14340 18 10
14340 19 15
14340 20 3
14341 5 1
14342 18 5
14342 19 2
14342 20 1
14343 2 13
14343 3 16
14343 34 27
14344 3 1
14344 26 3
14345 9 1
14346 24 1
14347 29 1
14348 18 1
14348 28 2
14349 12 1
14350 9 1
14350 18 3
14350 19 3
14350 20 1
14350 21 2
14350 29 1
14351 29 1
14352 3 6
14352 21 1
14352 29 4
14352 30 1
14352 34 2
14353 1 1
14353 2 4
14353 3 21
14353 7 1
14353 34 25
14354 2 4
14354 3 4
14354 29 1
14354 34 4
14355 26 1
14356 24 1
14357 34 1
14358 5 1
14359 2 1
14360 22 2
14361 24 2
14361 29 5
14362 9 3
14362 10 5
14362 11 1
14363 18 1
14364 2 4
14364 3 26
14364 5 1
14364 20 1
14364 29 10
14364 34 19
14365 29 1
14366 4 1
14367 11 1
14368 34 1
14369 24 1
14370 12 34
14370 13 2
14370 14 23
14371 2 1
14372 3 1
14373 34 1
14374 24 9
14374 26 1
14375 38 1
14376 25 1
14376 26 7
14377 24 1
14378 4 3
14378 5 18
14378 38 17
14379 38 1
14380 5 1
14381 3 1
14381 18 17
14381 19 20
14381 20 9
14382 12 1
14382 15 4
14382 16 1
14382 17 1
14383 12 27
14383 13 1
14383 14 12
14384 29 5
14385 2 1
14385 8 5
14386 8 1
14386 29 1
14387 19 1
14388 24 1
14389 2 1
14389 3 1
14389 26 3
14390 15 5
14390 16 3
14390 17 4
14390 18 8
14390 19 3
14391 3 1
14392 7 1
14392 8 1
14393 5 1
14393 8 1
14394 34 1
14395 3 1
14395 10 1
14396 3 1
14396 12 1
14396 15 1
14396 24 10
14396 28 1
14397 18 1
14397 19 2
14397 20 1
14398 4 2
14398 5 4
14398 38 4
14399 9 1
14400 24 1
14400 29 10
14400 38 1
14401 34 1
14402 3 2
14402 10 1
14402 15 1
14403 5 1
14403 18 2
14403 19 1
14403 24 1
14403 31 1
14404 7 4
14404 8 8
14404 38 1
14405 20 1
14406 34 1
14407 3 2
14407 12 7
14407 13 1
14407 14 3
14407 28 1
14408 2 1
14408 12 2
14408 14 4
14409 31 2
14409 38 1
14410 34 1
14411 3 1
14411 8 1
14411 16 1
14412 15 1
14413 9 1
14414 5 1
14415 3 1
14415 5 1
14415 20 2
14416 12 25
14416 14 7
14417 3 1
14418 4 1
14418 24 4
14418 28 3
14418 38 3
14419 19 1
14420 12 1
14421 21 1
14422 2 14
14422 3 12
14422 34 15
14423 21 1
14423 24 1
14424 5 1
14424 29 21
14424 30 2
14425 20 1
14425 24 7
14426 3 1
14426 18 13
14426 19 9
14426 20 2
14426 29 1
14427 28 1
14427 31 3
14428 26 1
14429 29 1
14430 1 1
14430 2 20
14430 3 28
14430 31 6
14430 34 39
14431 9 1
14432 2 1
14432 3 1
14432 5 2
14432 15 1
14432 17 1
14432 22 1
14432 24 1
14432 31 1
14432 34 1
14432 38 2
14433 2 1
14433 18 3
14433 19 7
14433 20 4
14434 4 1
14434 9 1
14434 34 1
14435 7 1
14436 31 3
14437 14 1
14438 29 1
14439 18 1
14440 12 5
14440 14 3
14441 28 3
14442 12 4
14442 13 1
14442 14 1
14443 34 1
14444 20 1
14445 2 7
14445 3 12
14445 34 20
14446 38 1
14447 12 2
14448 31 2
14449 4 1
14449 5 5
14449 38 3
14450 3 1
14451 3 1
14451 19 1
14451 22 1
14451 24 1
14451 29 12
14451 34 1
14452 10 2
14452 24 1
14453 3 1
14454 21 20
14454 22 12
14455 24 1
14456 13 1
14457 5 1
14458 5 1
14459 5 1
14459 24 6
14460 38 1
14461 29 3
14461 30 1
14462 18 1
14463 21 1
14464 3 1
14464 4 5
14464 5 19
14464 38 22
14465 19 1
14466 1 1
14466 2 9
14466 3 14
14466 16 1
14466 31 1
14466 34 15
14467 9 1
14468 24 14
14469 2 1
14470 9 1
14471 2 2
14471 3 5
14471 18 1
14471 19 4
14471 20 1
14471 24 1
14471 31 1
14471 34 11
14471 38 2
14472 3 1
14473 21 1
14474 9 1
14474 18 1
14475 3 1
14476 12 6
14476 14 4
14476 19 2
14477 9 5
14477 10 3
14477 11 3
14477 16 1
14478 25 2
14478 26 4
14479 24 1
14479 34 1
14480 21 1
14480 38 1
14481 12 1
14481 34 1
14482 2 1
14482 12 1
14483 10 1
14483 24 5
14484 28 1
14485 24 20
14485 29 1
14486 29 7
14487 18 37
14487 19 42
14487 20 21
14487 38 1
14488 24 3
14488 38 1
14489 7 1
14489 30 1
14490 24 1
14491 29 10
14492 12 1
14492 14 1
14493 31 15
14494 31 3
14495 29 2
14495 34 1
14496 7 9
14496 8 15
14497 4 1
14497 5 5
14497 19 4
14497 38 13
14498 21 1
14499 3 1
14499 5 1
14499 19 1
14499 31 3
14499 34 1
14500 24 1
14500 30 1
14501 34 1
14502 8 1
14502 10 1
14502 21 2
14503 5 1
14504 29 15
14504 30 3
14504 31 3
14505 3 1
14506 31 1
14507 18 1
14508 24 1
14509 5 1
14510 8 1
14511 5 1
14512 2 1
14512 34 1
14513 18 2
14513 19 2
14513 20 2
14514 22 1
14515 2 1
14515 5 2
14515 23 1
14515 24 18
14515 38 2
14516 14 1
14517 3 1
14517 22 1
14518 4 5
14518 5 18
14518 21 1
14518 38 24
14519 5 1
14520 11 1
14520 29 3
14521 34 1
14522 1 1
14523 5 1
14524 26 1
14524 31 1
14525 28 1
14526 7 1
14526 8 1
14526 10 1
14526 29 1
14527 5 2
14528 10 1
14528 26 1
14529 1 2
14529 2 10
14529 3 14
14529 26 2
14529 34 17
14530 17 1
14531 31 1
14532 31 6
14533 22 1
14534 10 1
14535 18 1
14535 19 2
14535 20 1
14535 21 12
14535 22 4
14535 31 1
14536 21 5
14536 22 3
14537 21 1
14537 34 1
14538 34 1
14539 21 1
14540 8 1
14541 21 1
14542 8 1
14543 9 1
14543 10 2
14543 18 3
14543 19 4
14543 20 2
14543 21 9
14543 22 9
14543 24 14
14544 2 13
14544 3 12
14544 34 22
14545 22 1
14546 21 1
14546 24 8
14546 31 1
14547 10 1
14548 18 32
14548 19 19
14548 20 4
14548 34 1
14549 21 3
14550 5 1
14550 7 8
14550 8 24
14551 3 1
14552 29 7
14553 20 1
14553 38 1
14554 9 8
14554 10 22
14554 11 14
14555 19 1
14556 24 13
14557 12 1
14557 38 1
14558 18 1
14559 3 1
14560 19 1
14560 29 8
14560 30 1
14561 19 1
14562 22 1
14563 30 1
14564 8 1
14565 29 1
14566 9 1
14567 4 5
14567 5 24
14567 24 1
14567 38 22
14568 4 5
14568 5 19
14568 38 29
14569 3 1
14570 19 1
14571 29 38
14571 30 1
14572 18 1
14573 12 1
14574 7 7
14574 8 9
14574 12 12
14574 14 6
14575 12 1
14576 10 1
14576 11 2
14576 31 1
14577 34 1
14578 12 12
14578 13 1
14578 14 17
14578 21 1
14578 29 1
14579 2 1
14579 18 1
14580 18 1
14581 29 3
14582 24 1
14583 19 1
14584 24 1
14585 24 10
14586 2 1
14586 4 4
14586 5 21
14586 38 37
14587 2 1
14588 3 1
14589 3 1
14590 24 4
14590 34 1
14591 29 1
14591 34 1
14591 38 1
14592 24 1
14593 28 2
14593 34 1
14594 26 1
14595 34 1
14596 29 2
14597 7 5
14597 8 11
14598 5 1
14599 11 1
14600 4 7
14600 5 39
14600 38 65
14601 29 1
14602 3 1
14603 3 1
14603 12 1
14603 38 2
14604 4 1
14604 5 6
14604 38 6
14605 29 6
14605 30 1
14606 12 1
14606 14 2
14606 34 1
14607 4 1
14607 28 1
14607 29 24
14607 30 2
14608 3 1
14608 26 7
14609 18 1
14609 19 1
14609 38 1
14610 5 1
14610 9 11
14610 10 15
14610 11 19
14610 38 1
14611 12 1
14611 34 1
14612 5 2
14612 9 1
14613 29 34
14614 9 1
14615 3 1
14615 8 2
14615 19 1
14615 24 1
14616 19 1
14617 12 1
14618 11 1
14618 18 1
14619 8 1
14619 28 4
14620 29 1
14620 31 1
14620 38 1
14621 3 1
14621 5 1
14621 38 1
14622 34 1
14623 4 1
14623 5 2
14623 10 1
14623 38 4
14624 5 1
14624 29 9
14624 30 1
14625 3 1
14625 11 1
14625 29 9
14626 12 1
14626 14 1
14627 19 1
14628 24 11
14629 18 1
14630 11 1
14631 34 1
14632 38 1
14633 38 1
14634 34 1
14635 28 6
14636 10 1
14637 21 5
14637 22 5
14638 28 3
14639 38 1
14640 28 5
14641 24 1
14642 22 2
14643 34 1
14644 14 1
14645 29 5
14646 7 1
14646 8 12
14647 3 1
14647 9 1
14648 29 1
14649 8 1
14649 23 1
14649 24 2
14650 31 2
14651 38 1
14652 16 1
14653 22 1
14654 29 13
14654 30 1
14655 2 15
14655 3 7
14655 11 1
14655 24 2
14655 34 14
14656 24 24
14657 3 1
14657 25 1
14657 26 10
14658 10 1
14659 5 6
14659 34 1
14659 38 3
14660 29 1
14661 34 1
14662 4 2
14662 5 29
14662 38 32
14663 21 1
14664 34 1
14665 3 2
14666 31 3
14667 34 1
14668 28 14
14668 29 5
14669 3 1
14669 18 5
14669 19 7
14669 20 3
14669 38 1
14670 38 1
14671 19 1
14672 2 3
14672 3 5
14672 34 5
14673 34 2
14674 24 5
14675 34 1
14676 3 1
14676 19 1
14677 5 1
14678 34 1
14679 26 1
14679 34 1
14680 22 1
14681 26 2
14682 12 15
14682 14 4
14683 12 10
14683 14 2
14683 19 3
14683 20 1
14684 18 1
14685 2 1
14685 19 1
14686 2 1
14686 3 1
14687 21 1
14687 28 6
14688 34 1
14689 1 5
14689 2 31
14689 3 77
14689 24 2
14689 34 118
14690 13 1
14691 21 7
14691 22 7
14692 21 1
14693 3 1
14693 20 1
14694 3 1
14694 31 2
14695 24 1
14696 18 1
14697 34 1
14698 5 1
14699 8 1
14700 18 1
14701 34 1
14702 38 1
14703 18 20
14703 19 40
14703 20 8
14704 38 2
14705 3 1
14705 28 2
14705 34 1
14706 29 1
14707 28 2
14708 28 1
14708 38 1
14709 19 1
14710 2 1
14710 3 1
14710 5 1
14710 38 1
14711 38 1
14712 8 1
14713 4 6
14713 5 22
14713 38 21
14714 10 1
14714 24 1
14714 29 7
14714 30 1
14714 34 1
14715 12 1
14716 11 1
14716 15 13
14716 16 12
14716 17 3
14717 12 1
14718 9 1
14719 9 1
14720 3 1
14720 10 1
14720 31 25
14720 33 1
14720 34 3
14721 2 1
14721 3 1
14721 8 1
14721 16 2
14721 21 1
14721 24 2
14721 34 3
14722 34 1
14723 2 6
14723 3 12
14723 34 12
14724 11 27
14725 8 1
14726 9 11
14726 10 17
14726 11 14
14727 24 1
14728 1 1
14728 2 3
14728 3 4
14728 34 5
14729 25 1
14730 24 1
14731 3 1
14732 15 3
14732 16 4
14732 17 5
14733 9 6
14733 10 3
14733 11 6
14733 24 1
14734 3 1
14734 14 3
14734 22 1
14734 38 1
14735 31 2
14736 21 1
14737 26 2
14738 14 1
14739 29 1
14740 12 3
14740 14 2
14741 29 22
14741 30 3
14742 25 1
14742 26 7
14743 7 1
14743 18 20
14743 19 35
14743 20 8
14743 24 1
14744 18 1
14745 3 1
14746 7 1
14747 5 4
14747 34 1
14747 38 10
14748 15 2
14748 16 1
14749 3 1
14750 5 2
14750 38 1
14751 15 18
14751 16 11
14751 17 14
14751 20 1
14752 24 1
14752 26 4
14753 18 2
14753 20 2
14754 9 1
14754 23 1
14754 24 12
14755 4 8
14755 5 32
14755 38 18
14756 10 1
14756 21 7
14756 22 8
14757 18 1
14758 5 1
14759 12 37
14759 13 2
14759 14 34
14760 3 2
14760 5 1
14760 34 1
14761 5 1
14762 4 1
14763 20 1
14764 2 8
14764 3 16
14764 34 29
14766 22 1
14767 8 1
14768 34 1
14769 31 1
14770 5 1
14770 38 1
14771 24 1
14772 23 1
14772 24 27
14772 38 1
14773 2 1
14773 3 4
14773 34 3
14774 24 6
14775 18 1
14775 29 1
14776 26 2
14777 3 1
14778 1 1
14778 2 22
14778 3 48
14778 34 89
14779 5 2
14779 31 1
14780 18 14
14780 19 7
14780 20 2
14780 21 24
14780 22 19
14780 34 1
14781 9 3
14781 10 16
14781 11 12
14782 34 1
14783 28 2
14784 9 1
14785 3 1
14786 19 1
14787 29 16
14787 30 2
14788 19 1
14789 11 1
14790 15 1
14791 3 7
14791 34 6
14792 2 1
14793 9 26
14793 19 1
14793 21 47
14794 38 1
14795 5 1
14795 38 1
14796 8 5
14796 34 1
14796 38 1
14797 12 1
14797 34 1
14798 24 1
14799 19 1
14800 21 9
14800 22 8
14800 24 1
14801 31 1
14802 31 4
14803 5 2
14803 38 5
14804 3 1
14805 2 1
14805 3 1
14805 15 2
14805 16 3
14805 17 3
14806 16 1
14806 18 1
14807 10 1
14807 20 1
14807 21 1
14808 1 1
14809 3 1
14810 26 1
14811 19 1
14812 3 1
14813 2 3
14813 3 25
14813 34 39
14814 2 1
14814 11 1
14815 24 1
14816 9 1
14817 38 1
14818 3 1
14818 34 1
14819 3 1
14820 3 1
14821 11 1
14822 34 1
14823 19 1
14824 21 1
14825 24 19
14826 3 1
14827 3 1
14827 24 1
14827 34 2
14828 29 1
14828 38 1
14829 3 1
14829 8 3
14829 20 1
14830 12 4
14830 14 1
14831 34 1
14832 2 1
14833 11 1
14834 18 1
14835 14 1
14835 31 9
14836 15 1
14837 24 20
14838 11 1
14839 18 3
14839 19 3
14839 20 1
14839 34 2
14839 38 1
14840 3 1
14841 24 1
14842 3 1
14842 19 1
14843 4 1
14843 5 7
14843 38 8
14844 1 1
14844 2 8
14844 3 32
14844 34 36
14845 11 1
14845 24 3
14846 7 5
14846 8 11
14847 12 1
14848 28 6
14849 3 1
14850 14 1
14850 15 3
14850 16 6
14850 17 7
14851 19 1
14852 38 2
14853 2 1
14854 7 1
14854 8 4
14854 15 6
14854 16 2
14854 17 2
14854 29 1
14855 3 1
14856 22 1
14856 24 11
14857 29 3
14858 2 1
14858 29 2
14859 29 1
14860 19 1
14861 4 1
14861 29 2
14861 30 1
14861 34 3
14862 15 6
14862 17 1
14863 31 2
14864 24 2
14864 29 1
14865 18 2
14866 15 1
14867 24 5
14868 8 1
14869 2 8
14869 3 6
14869 26 1
14869 31 1
14869 34 7
14870 15 1
14870 16 1
14871 3 1
14871 5 1
14871 9 4
14871 10 18
14871 11 14
14872 10 1
14872 31 4
14873 29 1
14874 34 1
14874 38 1
14875 18 1
14875 19 5
14876 9 7
14876 10 4
14876 11 9
14877 34 1
14878 7 6
14878 8 21
14878 19 1
14878 24 1
14879 22 1
14880 29 2
14881 29 1
14882 38 4
14883 19 1
14884 25 2
14884 26 1
14885 24 1
14886 11 1
14887 26 2
14887 34 1
14888 34 1
14889 22 1
14890 29 7
14890 31 1
14891 15 1
14891 29 2
14892 34 1
14893 29 1
14894 7 3
14894 8 2
14895 4 1
14896 29 1
14897 3 1
14898 2 1
14898 3 1
14898 28 4
14898 30 1
14898 34 2
14899 3 1
14900 3 1
14901 28 1
14902 9 2
14902 10 3
14902 11 1
14903 5 1
14903 34 1
14904 11 1
14905 2 1
14906 9 1
14907 24 1
14907 31 3
14908 5 1
14909 34 1
14910 24 15
14911 34 1
14912 29 3
14912 38 1
14913 3 1
14913 20 1
14914 19 1
14914 31 2
14915 9 2
14915 10 3
14915 11 1
14916 24 1
14917 28 4
14917 34 1
14918 28 3
14919 29 2
14920 3 1
14920 19 1
14920 31 3
14921 3 1
14921 19 1
14921 29 1
14921 38 1
14922 24 1
14923 8 1
14923 24 16
14923 31 1
14924 29 1
14925 4 1
14925 5 1
14925 38 2
14926 15 1
14926 17 1
14927 34 1
14928 38 1
14929 2 25
14929 3 46
14929 34 49
14930 2 3
14930 3 8
14930 18 1
14930 19 2
14930 24 4
14930 34 7
14930 38 1
14931 4 7
14931 5 7
14931 7 3
14931 8 9
14931 38 8
14932 28 2
14933 29 1
14934 24 1
14935 2 1
14936 21 6
14936 22 2
14936 29 1
14937 26 1
14938 3 1
14938 9 1
14938 11 1
14939 9 3
14939 10 3
14939 11 3
14939 38 2
14940 28 2
14940 29 3
14940 30 1
14940 34 1
14941 5 1
14942 20 1
14943 8 1
14943 26 1
14943 29 6
14944 20 1
14944 38 1
14945 34 1
14946 26 1
14947 34 1
14948 7 1
14948 8 6
14949 31 1
14950 3 2
14950 5 1
14950 8 1
14950 12 1
14950 19 1
14950 28 2
14950 31 3
14950 34 6
14951 10 1
14951 12 2
14951 34 1
14952 19 1
14953 2 1
14954 18 4
14954 19 7
14954 20 1
14955 19 1
14956 4 1
14957 31 1
14958 3 1
14959 18 3
14959 19 4
14959 20 2
14960 19 1
14961 21 1
14961 22 1
14962 4 8
14962 5 37
14962 38 50
14963 22 1
14964 16 1
14964 26 1
14964 34 1
14965 20 1
14965 24 1
14965 38 1
14966 9 1
14966 19 1
14966 24 1
14966 29 1
14966 31 3
14967 22 2
14968 24 1
14969 28 1
14970 2 1
14971 24 3
14971 31 13
14972 2 1
14972 18 22
14972 19 33
14972 20 11
14972 34 1
14973 38 1
14974 4 1
14975 38 1
14976 25 1
14976 26 4
14976 29 5
14977 2 1
14978 3 1
14978 29 17
14978 30 2
14978 34 1
14979 38 1
14980 15 2
14980 16 1
14981 38 1
14982 12 2
14982 14 3
14983 34 1
14984 2 4
14984 3 23
14984 34 27
14985 19 1
14986 17 1
14987 14 1
14988 26 1
14988 29 2
14989 5 1
14989 38 2
14990 12 6
14990 14 4
14991 2 1
14991 24 1
14992 29 3
14993 5 1
14994 3 1
14994 15 3
14994 16 3
14994 17 2
14994 29 1
14994 38 1
14995 3 1
14995 18 1
14996 24 1
14996 31 1
14997 15 3
14997 16 3
14997 17 1
14998 4 1
14998 28 1
14998 29 1
14998 31 9
14999 2 4
14999 3 21
14999 18 1
14999 34 18
15000 5 1
15000 19 2
15001 21 1
15002 12 4
15003 5 1
15004 4 12
15004 5 14
15004 38 25
15005 20 1
15005 34 1
15006 34 1
15007 26 4
15007 29 1
15007 30 1
15008 26 1
15009 26 8
15009 28 1
15010 20 2
15011 29 8
15011 30 1
15012 34 1
15013 24 1
15013 26 8
15014 17 1
15014 31 2
15015 5 13
15015 38 12
15016 5 5
15016 38 4
15017 29 1
15018 19 1
15019 24 10
15020 12 1
15020 14 1
15021 31 2
15022 29 2
15023 18 10
15023 19 6
15023 20 6
15024 10 1
15024 11 1
15024 12 11
15024 14 9
15025 19 1
15026 23 1
15026 24 15
15027 16 2
15028 2 1
15028 26 4
15029 12 13
15029 14 8
15030 38 1
15031 24 17
15032 4 6
15032 5 26
15032 38 27
15033 3 2
15033 18 7
15033 19 8
15033 20 2
15033 21 18
15033 34 1
15034 25 1
15034 26 1
15035 24 1
15036 38 1
15037 24 2
15037 29 5
15038 3 1
15038 24 4
15039 3 1
15040 3 1
15040 5 1
15041 3 1
15041 12 10
15041 14 5
15042 19 1
15043 3 1
15044 22 1
15045 9 1
15045 21 1
15046 3 1
15047 34 1
15048 18 1
15048 19 1
15048 38 1
15049 29 1
15050 5 3
15050 20 1
15050 38 3
15051 29 1
15052 24 1
15053 29 1
15054 38 1
15055 3 1
15056 12 3
15056 14 4
15057 18 1
15058 2 2
15058 3 8
15058 34 8
15059 21 1
15060 30 1
15061 12 16
15061 14 3
15062 3 1
15063 5 1
15064 18 1
15065 14 1
15066 26 1
15066 34 1
15067 34 1
15068 12 1
15069 3 1
15069 8 1
15069 28 1
15070 3 1
15071 2 1
15071 12 1
15072 5 1
15072 24 1
15072 38 2
15073 34 1
15074 18 4
15074 19 4
15074 20 1
15075 5 1
15075 38 1
15076 2 1
15077 31 1
15078 24 2
15079 10 1
15079 29 1
15080 18 2
15080 23 1
15080 24 1
15081 22 1
15082 26 2
15082 29 4
15082 30 1
15083 12 11
15083 14 7
15083 38 1
15084 24 1
15085 10 1
15086 18 1
15087 4 3
15087 5 11
15087 38 8
15088 19 1
15088 29 1
15089 10 1
15090 34 1
15091 3 1
15092 2 2
15092 3 3
15092 31 1
15093 5 1
15093 19 1
15094 1 1
15094 2 14
15094 3 18
15094 29 8
15094 30 1
15094 34 13
15095 21 1
15095 22 2
15096 3 1
15097 2 2
15097 3 5
15097 29 4
15097 34 2
15098 12 1
15099 21 7
15099 22 15
15099 29 1
15099 31 1
15100 38 1
15101 28 3
15102 31 1
15103 5 1
15104 2 1
15104 11 1
15105 10 1
15106 5 1
15107 38 1
15108 31 2
15109 18 1
15110 2 1
15110 29 4
15111 5 1
15111 15 1
15111 16 1
15111 18 1
15111 21 1
15112 12 4
15112 14 1
15113 21 35
15113 22 28
15114 5 1
15114 31 14
15115 14 1
15115 19 1
15116 19 1
15117 2 1
15117 3 21
15117 24 16
15117 34 14
15118 29 7
15119 5 1
15119 38 2
15120 12 1
15121 24 6
15122 31 1
15123 7 6
15123 8 15
15124 20 1
15125 5 3
15125 38 3
15126 2 1
15127 34 1
15128 5 3
15128 38 1
15129 5 1
15130 10 1
15131 15 1
15132 3 1
15133 2 9
15133 3 13
15133 34 13
15134 34 1
15135 34 1
15136 11 1
15137 5 1
15138 34 1
15139 34 1
15140 19 1
15141 14 1
15142 29 14
15142 30 2
15143 14 1
15143 29 1
15144 7 1
15144 8 1
15145 34 1
15146 17 1
15146 29 5
15147 24 5
15148 12 11
15148 13 1
15148 14 8
15148 28 1
15149 34 1
15150 14 1
15150 38 1
15151 15 1
15151 16 1
15151 17 1
15152 28 2
15152 34 1
15153 21 1
15154 24 16
15155 2 3
15155 3 4
15155 4 1
15155 34 8
15156 4 1
15156 5 7
15156 38 11
15157 2 4
15157 3 16
15157 14 1
15157 22 1
15157 34 13
15157 38 1
15158 34 1
15159 18 1
15160 5 1
15160 16 1
15161 2 7
15161 3 11
15161 26 1
15161 31 1
15161 34 6
15162 2 1
15162 18 20
15162 19 21
15162 20 10
15163 7 1
15163 28 7
15164 18 7
15164 19 5
15164 20 2
15165 3 1
15166 2 2
15166 3 2
15166 29 1
15166 34 2
15166 38 1
15167 21 1
15168 34 1
15169 29 3
15169 30 1
15170 20 1
15170 29 2
15171 12 19
15171 13 1
15171 14 16
15172 7 3
15172 8 3
15173 22 1
15174 2 8
15174 3 18
15174 34 23
15175 10 1
15176 31 6
15176 38 1
15177 24 1
15178 5 1
15179 5 1
15180 34 1
15181 5 1
15182 15 1
15182 16 1
15182 17 5
15183 10 1
15184 31 21
15185 24 1
15186 2 4
15186 3 16
15186 34 10
15187 10 1
15188 34 1
15189 2 5
15189 3 12
15189 34 12
15190 28 1
15191 18 24
15191 19 27
15191 20 5
15191 21 4
15191 22 6
15191 28 1
15192 14 1
15192 18 1
15193 5 1
15193 26 5
15193 29 8
15193 38 1
15194 24 7
15195 5 1
15196 3 1
15197 26 1
15198 1 1
15198 2 8
15198 3 25
15198 10 1
15198 34 21
15199 19 1
15200 3 1
15200 19 1
15201 11 1
15202 8 1
15203 18 1
15204 29 1
15205 2 1
15205 3 11
15205 34 13
15206 26 2
15207 3 1
15208 3 1
15208 29 1
15208 34 2
15209 1 1
15209 2 23
15209 3 19
15209 26 1
15209 34 21
15210 34 1
15211 31 3
15212 2 1
15212 5 1
15212 31 13
15213 15 1
15213 17 1
15213 34 2
15214 7 17
15214 8 20
15215 2 1
15215 3 1
15215 29 2
15216 23 1
15216 24 10
15216 34 1
15217 31 2
15218 2 12
15218 3 27
15218 34 20
15219 8 1
15220 3 1
15220 28 5
15221 3 1
15222 2 3
15222 3 5
15222 34 3
15223 5 1
15223 10 2
15223 11 1
15224 12 13
15224 13 1
15224 14 6
15224 38 1
15225 28 3
15226 38 1
15227 34 1
15228 19 1
15229 20 1
15229 31 1
15229 34 1
15230 29 1
15231 18 8
15231 19 10
15231 20 2
15232 14 1
15233 29 4
15234 12 1
15235 3 1
15237 3 3
15237 19 1
15237 28 5
15237 31 20
15238 9 1
15239 15 1
15240 21 2
15241 29 1
15242 29 6
15243 4 1
15243 9 2
15243 10 1
15243 11 5
15243 12 1
15243 31 1
15244 2 5
15244 3 12
15244 34 12
15245 2 7
15245 3 6
15245 26 1
15245 34 9
15246 34 1
15247 34 1
15248 9 1
15248 23 1
15248 24 16
15249 4 1
15249 5 6
15249 38 1
15250 5 1
15250 24 4
15251 3 1
15251 21 14
15251 22 9
15251 38 1
15252 3 1
15253 24 1
15253 29 5
15254 20 1
15255 11 1
15256 38 1
15257 38 1
15258 29 1
15259 5 3
15259 21 1
15259 22 2
15259 38 2
15260 29 12
15261 5 1
15261 29 17
15261 30 2
15262 17 1
15263 29 4
15263 30 1
15263 38 1
15264 18 1
15265 3 1
15265 24 1
15266 4 2
15266 5 1
15266 38 3
15267 28 7
15268 29 1
15269 5 1
15269 12 1
15269 18 1
15269 24 4
15269 25 1
15270 24 1
15271 15 2
15271 16 2
15271 17 5
15272 14 1
15272 21 1
15272 23 1
15272 24 16
15272 28 2
15272 31 1
15272 38 1
15273 12 3
15273 14 1
15274 18 15
15274 19 11
15274 20 6
15275 28 5
15276 12 2
15276 14 1
15277 2 1
15277 30 1
15277 31 3
15278 38 1
15279 12 1
15280 24 4
15281 34 1
15282 19 1
15283 18 2
15284 19 1
15285 2 1
15286 24 19
15287 14 1
15288 19 1
15288 29 36
15288 30 3
15288 31 5
15289 4 1
15289 9 2
15289 10 1
15289 38 2
15290 9 4
15290 10 15
15290 11 18
15291 21 27
15291 22 29
15292 21 1
15293 8 1
15293 38 1
15294 24 6
15295 15 1
15296 34 1
15297 5 1
15298 20 1
15299 18 1
15300 24 9
15301 21 1
15302 12 9
15302 14 6
15303 2 5
15303 3 4
15303 34 4
15304 34 1
15305 3 1
15306 4 1
15306 5 8
15306 38 10
15307 31 2
15308 3 1
15309 28 1
15310 3 1
15310 18 6
15310 19 10
15310 20 2
15311 21 2
15311 22 2
15311 29 24
15312 3 1
15312 31 1
15313 34 1
15314 34 1
15315 24 1
15315 34 1
15316 2 13
15316 3 11
15316 29 8
15316 34 19
15317 2 1
15317 3 4
15317 34 2
15318 29 1
15319 18 1
15320 38 1
15321 29 1
15322 10 2
15323 31 2
15323 32 1
15324 7 2
15324 8 2
15325 2 1
15326 5 1
15327 4 3
15327 5 2
15327 38 8
15328 9 1
15328 10 1
15328 18 13
15328 19 10
15328 20 8
15329 2 2
15329 3 3
15329 23 1
15329 24 8
15330 28 1
15331 2 2
15331 19 1
15331 34 1
15332 3 1
15333 24 7
15333 34 1
15334 12 1
15335 2 1
15336 34 1
15337 2 17
15337 3 21
15337 34 21
15338 18 1
15338 28 5
15338 34 1
15339 20 1
15340 3 1
15341 24 1
15341 34 1
15342 34 1
15343 29 1
15343 33 1
15344 4 8
15344 5 34
15344 38 47
15345 4 3
15345 5 12
15345 38 35
15346 7 1
15347 3 1
15347 38 1
15348 7 16
15348 8 41
15348 16 1
15350 2 15
15350 3 35
15350 29 20
15350 30 2
15350 34 55
15351 9 1
15351 11 1
15352 18 7
15352 19 5
15352 20 3
15353 3 1
15354 18 6
15354 19 4
15354 24 1
15355 3 1
15356 3 1
15356 18 25
15356 19 36
15356 20 13
15357 4 1
15357 18 1
15357 20 2
15358 12 1
15359 9 3
15359 10 4
15359 11 2
15359 21 4
15360 19 1
15361 23 1
15361 24 6
15362 34 1
15363 18 1
15363 34 2
15364 5 1
15365 5 1
15366 8 1
15366 18 34
15366 19 29
15366 20 4
15367 12 1
15368 3 1
15368 12 15
15368 13 2
15368 14 10
15369 2 3
15369 3 5
15369 26 1
15369 31 1
15369 34 7
15370 29 22
15370 34 1
15371 3 1
15372 2 1
15372 31 23
15373 17 1
15374 31 1
15375 20 1
15376 2 1
15376 18 1
15376 19 3
15376 20 3
15376 34 1
15377 2 3
15377 3 1
15377 34 1
15378 12 1
15378 29 1
15379 4 1
15379 5 13
15379 14 1
15379 38 10
15380 5 2
15380 8 1
15380 38 6
15381 29 11
15381 30 1
15382 2 1
15382 5 1
15382 18 21
15382 19 32
15382 20 11
15383 5 1
15384 19 1
15384 22 1
15384 25 1
15384 26 7
15384 38 1
15385 3 1
15385 4 2
15385 5 20
15385 38 14
15386 4 1
15386 38 1
15387 21 1
15388 9 1
15389 1 2
15389 2 21
15389 3 22
15389 34 20
15390 3 1
15391 18 3
15391 19 8
15391 20 3
15392 5 1
15393 18 1
15395 3 1
15395 34 1
15396 28 3
15397 29 1
15398 2 1
15399 2 2
15399 3 3
15399 24 1
15400 28 5
15401 19 1
15402 3 1
15402 5 1
15402 15 1
15402 18 4
15402 19 2
15402 20 4
15403 31 1
15404 20 1
15405 34 1
15406 2 1
15407 12 1
15407 25 5
15407 26 23
15408 34 1
15409 11 1
15409 19 1
15410 5 3
15410 38 5
15411 12 2
15411 14 1
15412 20 1
15413 2 4
15413 3 10
15413 34 16
15414 5 1
15414 38 1
15415 12 1
15415 19 1
15416 21 24
15416 22 18
15417 20 1
15418 1 1
15418 2 16
15418 3 17
15418 24 4
15418 26 1
15418 34 24
15419 24 1
15420 2 16
15420 3 15
15420 26 4
15420 31 4
15420 34 18
15421 22 1
15422 5 1
15423 10 1
15423 13 1
15423 14 1
15424 24 2
15425 2 1
15426 2 1
15427 21 1
15428 4 1
15428 5 4
15428 15 4
15428 16 3
15428 21 4
15428 22 5
15428 38 1
15429 3 1
15430 38 1
15431 12 1
15432 3 2
15432 19 1
15433 8 1
15433 31 1
15434 20 1
15435 21 1
15435 34 1
15436 4 1
15437 7 5
15437 8 20
15437 9 1
15438 19 1
15439 9 13
15439 10 3
15439 11 8
15440 24 1
15440 34 1
15441 34 1
15442 24 1
15442 26 1
15442 29 14
15443 31 8
15444 2 1
15444 3 5
15444 24 1
15444 34 2
15445 1 1
15445 2 10
15445 3 19
15445 34 15
15446 3 1
15446 24 19
15446 26 1
15446 34 1
15447 19 1
15448 3 1
15449 3 1
15450 24 1
15451 14 1
15452 24 1
15454 23 1
15454 24 10
15455 20 1
15456 3 1
15457 18 6
15457 19 2
15457 20 3
15458 5 1
15459 25 2
15459 26 2
15459 31 15
15460 31 6
15461 29 15
15461 30 2
15461 31 1
15462 1 2
15462 2 9
15462 3 7
15462 34 19
15463 29 6
15464 24 7
15465 7 6
15465 8 1
15465 9 1
15466 15 1
15467 2 1
15468 2 1
15469 38 1
15470 3 1
15471 4 5
15471 5 37
15471 21 1
15471 38 36
15472 3 1
15472 24 2
15472 25 1
15472 26 3
15472 29 3
15473 29 5
15474 19 1
15474 34 1
15475 19 1
15476 31 5
15477 3 1
15478 29 4
15479 21 1
15480 19 1
15481 3 1
15482 26 1
15483 24 1
15484 31 1
15485 22 1
15487 29 6
15488 24 10
15489 2 1
15489 3 1
15490 8 1
15491 19 1
15491 24 1
15491 26 2
15492 11 1
15493 7 14
15493 8 46
15494 8 1
15495 29 2
15496 29 1
15496 31 12
15497 29 9
15498 20 1
15499 2 6
15499 3 9
15499 29 1
15499 34 8
15500 34 1
15501 29 1
15501 38 1
15502 24 1
15502 29 1
15503 22 1
15504 15 9
15504 16 12
15504 17 7
15505 15 6
15505 16 3
15505 17 3
15506 10 1
15507 29 7
15508 24 1
15508 29 1
15508 34 1
15509 18 1
15510 24 32
15510 34 1
15511 12 1
15511 15 1
15512 10 1
15512 18 1
15512 22 1
15513 34 1
15514 2 1
15514 26 1
15515 5 1
15516 34 1
15517 5 1
15518 18 1
15519 19 1
15520 4 1
15520 14 1
15521 2 3
15521 3 1
15521 34 6
15522 31 1
15523 2 1
15524 3 2
15525 26 1
15526 5 1
15527 2 1
15528 28 1
15529 2 1
15530 14 1
15530 31 6
15531 5 1
15532 5 1
15533 3 1
15534 29 1
15535 16 1
15536 2 3
15536 3 3
15536 9 1
15536 28 2
15536 29 1
15536 34 4
15537 22 1
15538 14 1
15538 29 1
15539 22 1
15540 2 4
15540 3 7
15540 34 8
15541 38 2
15542 4 1
15544 12 1
15545 24 1
15545 31 1
15546 24 1
15547 4 2
15547 5 17
15547 38 17
15548 26 1
15548 31 2
15548 32 1
15549 2 5
15549 3 20
15549 10 1
15549 26 4
15549 34 18
15550 20 1
15551 21 2
15551 24 23
15552 31 7
15553 26 1
15554 14 3
15554 21 13
15554 22 12
15555 2 1
15555 3 9
15555 34 16
15556 19 1
15556 24 1
15556 29 3
15557 2 11
15557 3 11
15557 26 1
15557 34 24
15558 8 1
15559 7 1
15559 8 7
15559 22 1
15560 26 1
15561 34 1
15562 21 1
15563 5 18
15563 7 1
15563 34 1
15563 38 16
15564 24 3
15564 29 4
15564 31 5
15565 4 1
15565 5 4
15565 15 1
15565 38 3
15566 15 3
15566 16 5
15566 17 6
15567 2 1
15568 2 12
15568 3 15
15568 24 4
15568 34 17
15569 9 3
15569 10 2
15569 11 2
15570 18 4
15570 19 1
15570 20 2
15571 2 4
15571 3 9
15571 29 2
15571 34 8
15572 17 1
15572 34 1
15573 4 1
15573 21 2
15574 28 1
15575 24 1
15576 19 1
15577 34 1
15578 38 1
15579 11 2
15579 12 1
15579 19 1
15579 28 7
15580 4 5
15580 5 23
15580 38 25
15581 2 2
15581 3 7
15581 34 10
15582 24 14
15583 18 1
15584 17 1
15585 5 1
15586 21 3
15586 22 4
15587 4 3
15587 5 12
15587 38 18
15588 2 1
15588 5 1
15589 2 6
15589 3 18
15589 34 20
15590 15 1
15590 16 5
15590 17 3
15591 38 1
15592 5 1
15593 20 1
15594 15 2
15594 16 2
15594 17 4
15594 18 1
15595 21 14
15595 22 9
15596 22 1
15596 24 3
15597 4 1
15597 5 2
15597 38 2
15598 38 1
15599 17 1
15600 38 1
15601 8 1
15602 7 9
15602 8 25
15603 19 1
15604 10 1
15604 26 5
15604 31 1
15605 29 15
15605 30 1
15605 38 1
15606 34 1
15606 38 1
15607 28 1
15608 1 1
15608 2 6
15608 3 9
15608 34 9
15609 28 1
15610 38 1
15611 7 1
15612 2 1
15612 29 4
15613 3 1
15614 18 2
15614 20 1
15615 12 5
15615 14 2
15616 31 1
15617 18 7
15617 19 6
15617 20 1
15618 26 1
15619 24 1
15619 29 12
15619 30 1
15620 24 6
15621 28 2
15622 21 14
15622 22 19
15623 2 1
15624 3 1
15624 29 21
15624 30 2
15625 18 18
15625 19 31
15625 20 13
15626 2 1
15626 12 5
15626 14 5
15626 29 1
15627 2 3
15627 3 2
15627 29 6
15627 30 1
15628 2 1
15629 34 1
15630 7 1
15630 19 2
15631 21 1
15632 2 13
15632 3 15
15632 24 6
15632 28 1
15632 31 9
15632 34 16
15633 12 1
15633 17 1
15634 19 1
15635 31 2
15636 3 1
15636 12 5
15636 17 1
15636 18 6
15636 22 1
15637 8 1
15638 14 1
15639 24 12
15640 3 1
15640 5 1
15640 7 1
15640 8 1
15641 26 1
15642 4 1
15642 21 17
15642 22 17
15643 19 3
15643 24 1
15643 34 1
15644 22 2
15645 28 1
15646 38 1
15647 24 3
15647 26 2
15648 24 1
15648 28 4
15649 14 1
15650 14 1
15651 3 1
15651 24 3
15652 3 1
15652 24 6
15653 3 1
15653 14 1
15654 18 1
15654 19 6
15654 20 2
15655 29 14
15655 30 2
15656 3 1
15657 19 1
15658 3 1
15658 18 1
15659 30 1
15660 24 11
15661 18 1
15661 26 2
15662 24 2
15662 31 6
15663 34 1
15664 38 1
15665 8 1
15665 29 10
15666 29 1
15667 15 9
15667 16 5
15667 17 5
15668 8 1
15669 28 1
15670 38 1
15671 21 2
15671 22 2
15672 2 7
15672 3 5
15672 28 2
15672 34 8
15673 4 1
15673 24 1
15674 24 14
15675 2 1
15676 18 1
15677 8 1
15678 26 1
15679 24 1
15680 38 1
15681 19 1
15682 14 1
15683 4 1
15683 5 2
15683 21 2
15683 22 1
15683 38 3
15684 26 1
15685 5 1
15685 21 1
15685 29 1
15686 20 1
15686 24 11
15687 29 14
15687 30 1
15688 34 1
15689 24 11
15690 19 1
15691 2 1
15692 15 14
15692 16 4
15692 17 8
15693 21 1
15694 24 1
15695 22 1
15696 18 27
15696 19 32
15696 20 15
15697 24 1
15698 3 1
15699 15 1
15699 16 1
15699 17 3
15700 21 1
15700 22 1
15701 29 14
15701 30 2
15702 10 1
15702 26 1
15703 5 3
15703 12 11
15703 13 3
15703 14 8
15703 38 4
15704 10 1
15705 11 1
15705 12 24
15705 14 8
15705 15 14
15705 16 8
15705 17 15
15706 9 6
15706 10 4
15706 11 4
15706 15 6
15706 16 1
15706 17 2
15706 18 1
15706 19 1
15706 20 1
15707 28 1
15708 3 1
15708 34 1
15709 5 1
15710 7 3
15710 8 13
15710 21 1
15711 20 1
15712 3 1
15713 10 1
15713 11 1
15714 18 15
15714 19 14
15714 20 5
15715 26 1
15716 38 1
15717 3 1
15718 14 1
15719 3 1
15719 10 1
15720 16 1
15721 15 1
15721 19 2
15721 20 1
15721 24 1
15722 28 6
15722 34 1
15723 3 1
15724 8 1
15724 28 1
15725 31 2
15726 5 4
15726 38 3
15727 28 2
15727 29 1
15728 29 5
15728 30 1
15729 29 4
15730 9 1
15730 11 1
15731 9 1
15732 11 1
15733 2 1
15734 15 1
15734 16 1
15734 21 5
15734 22 6
15735 10 1
15736 3 1
15736 38 1
15737 5 1
15738 21 2
15738 22 2
15739 29 5
15740 11 1
15741 31 8
15742 8 2
15743 5 1
15743 9 2
15743 10 4
15743 11 8
15743 21 1
15743 29 1
15744 26 1
15745 15 1
15746 2 1
15746 4 4
15746 5 18
15746 38 24
15747 3 1
15748 9 1
15748 10 3
15749 12 2
15749 14 3
15750 2 2
15750 3 7
15750 34 5
15751 12 1
15751 14 1
15751 21 1
15752 25 1
15752 26 15
15752 38 1
15753 18 3
15753 19 2
15754 21 1
15755 25 1
15755 26 1
15756 29 1
15757 2 1
15757 3 2
15757 34 1
15758 3 1
15758 29 4
15759 14 1
15760 2 15
15760 3 40
15760 34 53
15761 34 1
15762 24 1
15762 25 1
15762 26 11
15763 18 4
15763 19 4
15763 20 5
15764 30 1
15765 5 5
15765 38 2
15766 26 1
15766 34 1
15766 38 1
15767 15 1
15768 18 1
15768 19 1
15768 24 1
15769 21 12
15769 22 16
15770 21 1
15771 25 1
15772 14 1
15773 8 1
15773 18 1
15774 9 1
15775 2 9
15775 3 7
15775 34 10
15776 34 1
15777 24 1
15778 2 1
15779 28 2
15780 8 1
15780 9 1
15780 15 3
15780 17 1
15780 19 1
15780 24 2
15780 31 1
15781 11 1
15781 19 1
15781 21 1
15782 3 1
15782 19 2
15782 20 1
15783 3 1
15784 8 1
15784 10 3
15784 22 1
15785 5 1
15785 21 1
15785 26 11
15786 29 2
15787 20 1
15787 29 12
15787 30 1
15787 31 1
15788 5 4
15789 19 1
15790 1 1
15790 15 1
15790 21 1
15790 22 1
15791 5 1
15792 1 3
15792 2 26
15792 3 37
15792 34 41
15793 2 1
15793 5 1
15793 31 18
15794 12 5
15794 14 5
15795 18 1
15796 8 1
15797 38 1
15798 9 1
15799 29 1
15800 26 3
15801 23 1
15802 18 57
15802 19 59
15802 20 21
15803 11 1
15803 26 2
15804 20 1
15804 29 7
15805 24 1
15805 28 6
15806 19 1
15807 3 1
15808 28 5
15808 29 1
15809 3 1
15809 5 1
15809 21 6
15809 22 7
15810 10 1
15810 18 1
15810 19 6
15810 20 3
15811 29 2
15812 14 2
15812 38 1
15813 2 3
15813 3 4
15813 34 3
15814 29 1
15815 11 1
15815 34 1
15816 23 1
15816 24 26
15817 18 1
15817 29 4
15818 15 5
15818 16 5
15818 17 9
15819 18 1
15820 24 1
15821 19 1
15822 24 7
15823 5 1
15824 38 1
15825 2 1
15826 18 2
15826 21 1
15827 1 1
15827 2 25
15827 3 51
15827 14 1
15827 34 58
15828 25 1
15829 21 6
15829 22 3
15830 18 1
15830 21 1
15830 34 1
15831 19 1
15832 3 1
15832 16 1
15832 24 3
15833 30 1
15834 21 1
15835 29 1
15836 34 1
15837 10 1
15838 24 14
15839 9 4
15839 10 5
15839 28 1
15839 34 1
15840 10 1
15841 24 2
15841 34 3
15842 34 1
15843 24 3
15844 3 1
15845 5 1
15845 19 4
15846 18 1
15847 5 2
15847 38 2
15848 1 1
15848 2 15
15848 3 16
15848 34 18
15849 3 1
15850 29 16
15850 38 1
15851 34 1
15852 9 1
15853 24 1
15854 31 2
15855 7 1
15856 5 1
15857 12 1
15857 14 1
15858 3 1
15858 7 10
15858 8 11
15859 3 4
15859 5 1
15859 19 1
15859 21 1
15859 24 1
15859 34 2
15859 38 2
15860 5 1
15861 31 4
15862 34 1
15863 5 4
15863 38 8
15864 1 1
15864 10 3
15864 26 1
15865 12 1
15866 31 1
15867 12 1
15867 38 1
15868 16 1
15869 2 1
15870 3 1
15870 28 1
15871 34 1
15872 24 1
15873 7 5
15873 8 10
15874 5 1
15874 29 6
15875 38 1
15876 31 4
15877 5 1
15878 4 1
15878 5 2
15878 7 2
15878 8 2
15878 21 1
15878 38 4
15879 18 1
15880 24 8
15881 20 1
15881 34 1
15882 18 3
15882 19 3
15882 20 2
15883 29 18
15884 2 1
15884 9 8
15884 10 7
15884 11 3
15885 5 1
15885 20 1
15886 19 1
15887 29 1
15888 10 1
15889 5 1
15889 9 2
15889 10 3
15889 11 3
15889 38 4
15890 20 1
15890 24 18
15891 29 3
15892 21 1
15893 16 1
15893 24 1
15893 34 1
15894 21 18
15894 22 6
15895 24 1
15896 34 1
15897 3 1
15898 34 2
15899 18 1
15899 29 1
15900 5 1
15900 34 1
15901 3 1
15901 12 1
15902 5 1
15903 3 1
15903 25 1
15903 26 1
15904 38 2
15905 21 5
15905 22 4
15906 9 4
15906 10 4
15906 29 1
15907 3 1
15908 29 1
15909 38 1
15910 4 1
15910 5 3
15910 38 6
15911 29 12
15911 30 1
15912 7 2
15912 8 2
15913 31 1
15913 38 1
15914 34 1
15915 12 4
15915 14 1
15916 24 1
15917 8 1
15918 2 1
15918 3 1
15918 23 1
15918 24 8
15919 19 1
15920 21 19
15920 22 11
15921 31 5
15922 1 2
15922 2 25
15922 3 32
15922 34 41
15923 31 1
15924 26 1
15925 5 1
15926 1 1
15926 2 2
15926 3 4
15926 24 13
15926 34 6
15927 11 40
15928 10 1
15928 38 1
15929 21 7
15929 22 4
15930 31 12
15931 21 18
15931 22 13
15932 5 1
15932 8 1
15932 23 1
15932 24 26
15932 34 1
15933 9 1
15933 34 1
15934 2 1
15935 19 1
15936 26 1
15937 24 8
15938 18 2
15938 19 1
15938 20 2
15938 21 7
15938 22 3
15938 38 1
15939 19 1
15939 24 5
15940 9 1
15940 29 8
15940 30 2
15941 34 1
15942 24 12
15943 38 1
15944 31 4
15945 24 1
15947 11 2
15948 3 1
15949 3 1
15950 21 1
15951 9 1
15952 12 7
15952 13 2
15952 14 9
15953 34 1
15954 2 1
15954 15 12
15954 16 7
15954 17 5
15954 19 1
15955 21 1
15956 5 6
15956 28 1
15956 38 4
15957 34 1
15958 2 1
15958 3 1
15958 31 1
15958 34 2
15959 24 1
15960 5 1
15961 19 1
15962 15 29
15962 16 10
15962 17 24
15963 4 5
15963 5 21
15963 29 1
15963 38 20
15964 5 1
15964 28 3
15965 9 5
15965 10 6
15965 11 2
15966 14 1
15967 19 1
15968 5 1
15968 24 1
15968 26 1
15968 38 5
15969 14 1
15969 22 1
15969 24 1
15969 31 1
15970 10 1
15971 25 1
15971 26 19
15972 18 1
15973 28 1
15973 38 1
15974 1 2
15974 2 20
15974 3 40
15974 34 31
15975 34 1
15976 19 1
15977 29 1
15978 18 4
15978 19 3
15978 20 1
15979 22 1
15980 34 1
15980 38 1
15981 22 1
15982 2 18
15982 3 46
15982 34 70
15983 2 12
15983 3 15
15983 34 29
15984 2 1
15984 5 1
15984 9 4
15984 10 8
15984 11 10
15984 34 1
15985 12 1
15985 18 1
15985 19 1
15985 21 1
15986 22 1
15987 34 1
15988 24 2
15989 34 1
15990 26 1
15991 18 4
15991 19 2
15991 34 1
15992 24 4
15992 29 2
15993 17 1
15994 28 1
15995 38 1
15996 31 1
15997 29 1
15998 29 7
15998 30 2
15999 18 13
15999 19 14
15999 20 5
16000 31 6
16001 28 1
16001 29 4
16001 30 2
16002 22 1
16003 31 3
16004 2 1
16005 21 6
16005 22 7
16006 38 1
16007 9 2
16007 10 5
16007 11 3
16008 9 1
16009 17 1
16010 5 2
16010 38 2
16011 34 1
16012 3 1
16012 4 7
16012 5 20
16012 38 15
16013 5 1
16013 19 1
16013 24 11
16014 29 4
16014 34 1
16015 2 1
16015 10 1
16016 2 4
16016 3 2
16016 34 1
16017 4 2
16017 5 7
16017 12 3
16017 14 3
16017 38 7
16018 21 6
16018 22 10
16019 29 6
16020 5 1
16021 20 1
16022 3 1
16022 12 12
16023 5 1
16024 24 1
16025 22 1
16025 24 8
16026 3 1
16027 7 1
16027 13 1
16027 28 5
16028 23 1
16028 24 6
16029 16 1
16029 29 3
16030 34 1
16031 12 2
16032 26 2
16033 29 1
16034 2 9
16034 3 17
16034 8 1
16034 15 1
16034 24 1
16034 34 26
16035 38 1
16036 12 5
16036 14 4
16036 18 1
16037 24 1
16038 31 19
16038 38 1
16039 8 1
16040 24 21
16040 38 1
16041 9 1
16041 10 1
16041 18 6
16041 19 10
16042 21 4
16042 22 5
16042 31 1
16043 38 1
16044 21 1
16045 38 2
16046 29 18
16047 34 1
16048 18 14
16048 19 17
16048 20 9
16049 21 1
16050 5 1
16051 31 1
16052 29 1
16053 24 7
16054 3 1
16055 2 1
16055 3 1
16055 34 1
16056 29 1
16057 7 5
16057 8 4
16058 12 4
16058 13 1
16058 14 5
16059 24 14
16059 38 1
16060 12 1
16060 21 1
16061 34 1
16062 18 2
16062 19 12
16062 20 5
16063 28 10
16063 31 1
16064 3 1
16065 2 1
16066 38 1
16067 19 1
16068 14 1
16068 29 19
16068 30 4
16069 2 1
16069 3 2
16069 24 1
16069 34 1
16070 24 1
16071 4 1
16072 18 3
16072 19 5
16072 20 2
16073 31 2
16073 34 1
16074 24 1
16075 9 1
16075 18 1
16075 19 4
16075 20 1
16076 21 5
16076 22 7
16077 21 5
16077 22 3
16078 2 8
16078 3 11
16078 28 1
16078 34 18
16079 21 5
16079 22 5
16080 38 1
16081 24 1
16082 20 1
16083 18 1
16084 29 8
16084 30 1
16085 2 1
16086 2 1
16087 3 1
16088 3 1
16088 14 1
16089 3 1
16089 5 1
16089 19 1
16089 28 2
16090 21 1
16091 1 1
16091 2 18
16091 3 20
16091 34 41
16092 5 2
16092 12 1
16092 38 2
16093 2 2
16093 3 8
16093 34 10
16094 22 1
16095 18 1
16096 34 2
16097 38 1
16098 2 1
16099 14 1
16100 31 1
16101 34 1
16102 2 1
16103 29 3
16104 18 7
16104 19 5
16104 20 3
16104 38 2
16105 38 1
16106 24 1
16107 22 1
16108 18 1
16109 29 4
16110 38 1
16111 29 1
16112 7 8
16112 8 11
16113 3 1
16114 29 1
16115 18 1
16115 24 1
16115 31 8
16116 12 1
16116 14 5
16116 34 1
16117 24 1
16118 26 1
16118 34 1
16119 19 1
16120 5 1
16121 12 1
16122 28 1
16123 34 1
16124 19 1
16125 20 1
16126 3 1
16127 2 1
16127 3 2
16127 34 1
16128 3 1
16129 24 3
16130 19 1
16131 3 1
16132 31 1
16133 18 1
16134 2 2
16134 29 1
16134 34 2
16135 5 1
16135 34 1
16136 2 1
16136 15 1
16136 17 4
16137 3 1
16137 28 16
16138 18 2
16138 19 1
16138 38 1
16139 11 1
16140 2 1
16140 3 1
16140 22 1
16141 21 1
16142 21 1
16142 29 1
16143 18 3
16143 19 1
16144 29 5
16144 30 1
16145 9 26
16145 10 30
16145 11 28
16146 31 3
16147 38 1
16148 29 1
16149 11 1
16149 31 7
16150 29 1
16151 38 1
16152 24 1
16153 18 2
16154 3 3
16154 16 1
16154 17 1
16154 34 3
16155 7 1
16155 8 5
16155 31 1
16156 3 1
16157 2 11
16157 3 11
16157 34 14
16158 21 14
16158 22 13
16159 10 1
16160 24 1
16161 3 1
16162 14 1
16163 18 19
16163 19 28
16163 20 3
16163 34 1
16164 24 1
16165 2 7
16165 3 21
16165 5 1
16165 34 18
16166 18 1
16167 7 15
16167 8 23
16167 9 1
16167 15 1
16167 18 1
16168 2 1
16169 31 1
16170 29 7
16170 30 1
16171 3 1
16172 15 1
16173 2 1
16174 31 1
16174 38 1
16175 7 8
16175 8 17
16176 3 1
16177 2 7
16177 3 5
16177 24 4
16177 34 9
16178 38 1
16179 30 1
16180 18 12
16180 19 21
16180 20 6
16181 24 1
16182 12 1
16183 12 1
16184 5 1
16185 3 1
16185 34 1
16186 3 1
16187 19 1
16188 29 1
16189 18 4
16189 19 5
16189 20 1
16190 29 1
16191 24 1
16192 24 1
16192 31 2
16193 2 1
16194 2 1
16194 3 1
16194 34 1
16195 24 6
16196 2 12
16196 3 25
16196 18 1
16196 34 19
16196 38 1
16197 19 1
16198 3 1
16198 8 1
16198 21 1
16198 38 1
16199 3 1
16200 38 1
16201 21 1
16201 34 1
16202 30 1
16203 4 2
16203 5 11
16203 38 8
16204 5 1
16205 24 1
16206 24 1
16207 19 1
16208 18 1
16209 16 1
16210 29 1
16211 29 4
16212 3 1
16212 38 1
16213 34 1
16214 12 18
16214 14 8
16215 19 1
16216 2 1
16217 14 1
16218 20 1
16219 23 1
16219 24 21
16220 38 1
16221 21 24
16221 22 10
16221 31 1
16221 34 1
16222 7 1
16222 8 1
16223 5 1
16224 18 1
16225 5 3
16225 38 2
16226 3 1
16226 18 1
16226 19 5
16226 21 1
16227 9 1
16228 18 1
16228 19 1
16228 20 1
16229 19 1
16230 3 1
16230 5 1
16230 34 3
16231 12 2
16232 20 1
16233 2 3
16233 3 4
16233 34 4
16234 5 3
16234 38 1
16235 5 1
16236 3 1
16237 26 1
16238 29 1
16239 4 3
16239 5 5
16239 38 8
16240 2 3
16240 3 3
16240 34 3
16241 4 1
16241 38 1
16242 7 1
16242 8 1
16242 34 1
16243 34 1
16244 4 1
16244 5 8
16244 24 8
16244 38 8
16245 21 8
16245 22 7
16246 29 1
16247 7 2
16247 8 1
16247 26 1
16248 23 1
16249 7 6
16249 8 43
16249 34 1
16250 8 1
16251 8 1
16251 29 13
16251 30 1
16252 3 1
16253 24 1
16254 24 1
16255 12 3
16255 14 3
16256 5 1
16256 21 10
16256 22 14
16257 28 2
16258 29 3
16259 29 12
16259 30 3
16260 28 1
16261 22 1
16262 22 1
16263 31 9
16264 1 1
16264 2 20
16264 3 17
16264 8 1
16264 34 21
16265 2 4
16265 3 40
16265 34 66
16266 4 1
16266 5 1
16266 38 3
16267 22 1
16268 7 1
16268 8 30
16268 34 1
16269 12 1
16270 5 1
16270 24 10
16271 5 1
16272 24 7
16273 24 3
16273 34 1
16274 5 1
16275 19 1
16276 5 1
16277 3 1
16278 3 1
16279 3 1
16279 31 3
16280 26 1
16281 26 1
16281 31 2
16282 2 3
16282 3 4
16282 34 1
16283 26 3
16284 19 1
16285 34 1
16286 28 1
16287 31 1
16288 3 1
16289 5 1
16290 18 1
16290 34 1
16291 2 1
16291 29 1
16292 3 1
16293 26 8
16294 16 2
16294 17 1
16295 8 1
16296 8 1
16297 15 1
16298 26 8
16299 24 1
16299 28 3
16300 34 1
16301 7 3
16301 8 19
16302 34 1
16303 24 1
16304 2 1
16304 23 1
16304 24 11
16305 21 10
16305 22 6
16306 2 1
16306 5 1
16306 29 1
16307 21 15
16307 22 10
16308 2 4
16308 3 1
16308 21 1
16308 24 7
16308 34 4
16309 12 1
16309 15 1
16310 28 1
16311 22 2
16312 19 1
16312 24 1
16313 18 7
16313 19 16
16313 20 4
16313 34 1
16314 29 13
16314 30 3
16315 2 2
16315 3 6
16315 34 14
16316 28 1
16317 4 2
16317 5 7
16317 24 1
16317 38 7
16318 29 1
16319 15 11
16319 16 10
16319 17 13
16319 38 1
16320 21 1
16321 22 1
16322 26 4
16322 34 1
16322 38 1
16323 2 1
16323 3 1
16323 5 1
16323 34 2
16324 5 1
16324 15 4
16324 16 1
16324 17 1
16324 29 1
16325 24 12
16326 29 5
16327 8 1
16328 24 1
16329 28 4
16330 29 2
16331 18 1
16332 14 1
16333 29 3
16333 34 2
16334 2 1
16334 18 1
16334 19 1
16335 38 3
16336 29 1
16337 31 7
16338 24 16
16339 18 34
16339 19 13
16339 20 12
16339 34 1
16340 28 2
16340 38 1
16341 29 1
16342 19 1
16342 22 1
16343 24 1
16344 24 1
16345 2 1
16346 5 1
16347 2 15
16347 3 16
16347 31 8
16347 34 20
16348 4 10
16348 5 44
16348 9 7
16348 10 14
16348 11 13
16348 38 55
16349 5 1
16349 29 11
16350 2 6
16350 3 14
16350 24 1
16350 31 2
16350 34 15
16351 1 1
16351 21 1
16352 7 4
16352 8 13
16353 17 1
16354 19 1
16355 2 1
16356 31 1
16357 2 4
16357 3 2
16357 34 4
16358 29 4
16359 34 1
16360 31 1
16361 24 1
16362 34 1
16363 4 1
16364 20 1
16365 9 1
16366 38 3
16367 2 1
16368 5 1
16368 9 1
16368 10 2
16368 11 7
16368 27 1
16368 28 2
16368 38 4
16369 24 1
16370 2 1
16370 22 2
16371 24 8
16372 5 2
16372 38 1
16373 3 1
16374 1 1
16374 29 11
16375 1 1
16375 2 5
16375 3 11
16375 7 1
16375 9 2
16375 11 1
16375 20 1
16375 34 14
16376 18 2
16376 19 3
16377 17 1
16378 34 1
16379 15 18
16379 16 17
16379 17 11
16380 34 1
16381 3 1
16382 3 1
16382 24 1
16383 3 1
16384 12 1
16384 13 1
16384 15 1
16384 29 1
16384 38 1
16385 38 1
16386 29 1
16387 5 1
16388 12 1
16388 14 3
16389 3 1
16390 2 1
16390 7 1
16390 34 1
16391 12 1
16392 1 2
16392 2 7
16392 3 5
16392 29 8
16392 30 2
16392 34 16
16393 9 1
16393 11 2
16394 38 1
16395 23 1
16395 24 6
16396 34 1
16397 12 5
16397 13 1
16397 14 4
16398 12 1
16399 29 1
16400 2 9
16400 3 25
16400 5 1
16400 34 36
16401 10 1
16402 9 1
16402 10 4
16402 11 1
16403 34 2
16404 5 1
16404 18 2
16405 3 1
16405 9 9
16405 10 22
16405 11 20
16406 21 1
16406 24 1
16407 5 1
16408 38 1
16409 28 1
16410 15 3
16410 16 1
16410 17 6
16410 38 1
16411 34 1
16412 14 1
16413 5 1
16414 17 1
16414 26 7
16415 34 1
16416 3 1
16417 34 1
16418 26 1
16419 19 1
16419 26 9
16420 18 1
16421 2 7
16421 3 12
16421 34 18
16422 2 3
16422 3 2
16422 24 1
16422 34 3
16423 38 1
16424 19 1
16425 3 1
16425 24 12
16426 8 1
16427 7 2
16427 8 3
16428 29 1
16429 24 1
16430 34 1
16431 31 1
16432 24 7
16433 19 1
16433 24 1
16433 34 1
16434 2 12
16434 3 17
16434 5 1
16434 29 1
16434 34 16
16435 12 2
16435 14 2
16436 10 1
16437 18 1
16437 34 1
16438 21 1
16439 1 1
16440 9 1
16441 2 8
16441 3 16
16441 34 15
16442 28 2
16443 34 1
16444 31 1
16445 5 1
16445 29 2
16445 30 1
16445 38 1
16446 29 2
16446 31 1
16447 14 1
16447 31 3
16448 24 2
16449 21 4
16449 22 4
16450 34 1
16451 24 1
16452 29 1
16453 26 4
16454 7 1
16454 15 1
16455 7 1
16455 8 1
16455 17 1
16455 28 1
16456 19 1
16457 28 1
16458 1 1
16458 2 11
16458 3 17
16458 19 1
16458 34 11
16459 10 2
16460 3 1
16460 7 3
16460 8 5
16460 21 22
16460 22 14
16461 24 1
16462 12 6
16462 14 2
16463 24 1
16463 25 1
16463 26 18
16464 22 1
16465 38 1
16466 3 1
16467 23 1
16467 24 2
16468 2 1
16469 34 1
16470 3 1
16471 18 1
16472 11 1
16473 18 1
16474 2 1
16474 24 2
16474 34 1
16475 3 1
16476 2 1
16477 34 1
16478 1 1
16478 2 19
16478 3 44
16478 21 1
16478 34 40
16479 15 1
16479 38 1
16480 24 3
16480 34 1
16481 2 1
16481 3 1
16481 9 1
16482 38 1
16483 3 2
16483 12 7
16483 14 3
16484 2 1
16484 7 14
16484 8 44
16484 21 1
16485 25 1
16486 29 1
16487 22 1
16487 26 1
16488 34 1
16489 18 1
16490 2 1
16491 29 1
16492 29 21
16492 30 2
16493 34 1
16494 2 7
16494 3 11
16494 26 7
16494 34 6
16495 16 1
16496 1 1
16496 3 1
16497 31 1
16498 4 1
16498 5 8
16498 38 9
16499 31 7
16500 28 7
16502 22 1
16502 29 6
16502 30 1
16503 24 1
16504 38 1
16505 34 1
16506 1 2
16506 2 36
16506 3 27
16506 20 1
16506 34 50
16507 34 1
16508 10 1
16509 4 1
16509 5 4
16509 38 1
16510 12 1
16511 1 1
16511 2 15
16511 3 16
16511 19 1
16511 34 32
16512 24 18
16513 24 1
16514 20 1
16515 29 9
16516 12 1
16517 19 3
16518 26 1
16518 34 1
16519 1 2
16519 2 21
16519 3 46
16519 34 47
16520 12 14
16520 14 7
16520 18 1
16520 19 1
16520 24 1
16521 15 1
16522 5 1
16522 38 2
16523 34 1
16524 1 1
16524 2 12
16524 3 8
16524 34 13
16525 18 1
16525 19 4
16525 20 4
16526 7 7
16526 8 35
16526 21 1
16527 14 1
16528 29 6
16529 9 1
16530 2 6
16530 3 17
16530 26 1
16530 29 23
16530 34 22
16531 2 18
16531 3 22
16531 34 24
16532 7 7
16532 8 14
16533 26 1
16534 34 1
16535 22 1
16536 34 1
16537 18 2
16537 19 1
16538 10 1
16539 31 1
16540 5 1
16540 24 1
16541 12 1
16542 5 1
16542 21 1
16543 38 1
16544 4 18
16544 5 64
16544 38 75
16545 2 7
16545 3 11
16545 34 12
16546 18 9
16546 19 7
16546 20 5
16547 3 1
16548 2 1
16548 4 6
16548 5 30
16548 38 31
16549 19 1
16550 2 3
16550 3 9
16550 18 1
16550 23 1
16550 24 9
16550 26 1
16550 34 8
16551 3 1
16551 12 1
16552 15 3
16552 16 2
16552 17 1
16553 19 1
16554 7 1
16555 38 1
16556 31 1
16557 9 2
16557 10 4
16557 11 2
16558 2 2
16558 3 8
16558 34 10
16559 10 1
16559 38 1
16560 5 1
16560 31 1
16561 12 11
16561 14 3
16562 21 1
16562 24 20
16562 29 1
16563 7 3
16563 8 10
16564 28 1
16565 21 9
16565 22 2
16566 3 1
16566 12 3
16566 14 3
16567 21 1
16567 28 1
16568 34 1
16569 24 13
16570 2 15
16570 3 18
16570 21 1
16570 29 15
16570 30 2
16570 34 23
16571 2 1
16572 29 1
16573 2 1
16573 34 2
16574 29 1
16574 30 1
16575 3 1
16576 12 13
16576 13 1
16576 14 8
16577 34 1
16578 7 1
16579 22 1
16580 29 1
16581 3 1
16581 24 1
16582 34 1
16583 1 1
16583 2 4
16583 3 26
16583 18 1
16583 34 43
16584 2 1
16585 29 1
16586 4 1
16586 38 1
16587 4 1
16588 12 16
16588 14 18
16589 38 1
16590 38 1
16591 34 1
16592 18 1
16593 4 23
16593 5 83
16593 27 1
16593 28 12
16593 38 100
16594 3 2
16594 24 7
16595 24 1
16595 31 13
16596 21 1
16597 23 1
16597 24 14
16598 3 1
16599 1 2
16599 2 9
16599 3 23
16599 34 26
16600 8 4
16600 25 4
16600 26 10
16600 38 1
16601 21 1
16602 10 1
16602 11 2
16603 18 2
16603 22 1
16603 29 1
16604 29 3
16604 30 1
16605 24 1
16606 26 6
16606 34 1
16607 19 1
16608 12 1
16608 24 2
16609 12 1
16610 5 1
16611 4 4
16611 5 13
16611 38 13
16612 31 13
16612 33 1
16613 26 1
16613 29 1
16614 12 1
16615 28 1
16616 29 21
16617 2 1
16617 3 1
16617 34 3
16618 18 1
16619 31 3
16620 7 1
16620 8 1
16620 24 1
16621 29 6
16621 30 1
16622 38 1
16623 29 2
16623 31 35
16623 38 1
16624 9 1
16625 28 1
16626 31 13
16627 21 1
16628 3 3
16628 5 1
16628 14 1
16628 26 1
16628 31 1
16628 34 1
16629 3 1
16630 31 15
16631 3 1
16632 3 1
16633 34 1
16634 8 1
16635 18 1
16636 2 1
16636 3 1
16636 5 2
16636 21 1
16636 24 2
16637 4 1
16637 5 1
16637 9 1
16637 24 32
16637 31 1
16638 38 1
16639 18 1
16640 15 1
16641 8 1
16641 34 1
16642 26 4
16643 21 9
16643 22 5
16644 19 1
16645 12 3
16645 13 1
16645 14 8
16646 15 1
16646 18 1
16647 1 1
16647 2 11
16647 3 10
16647 18 1
16647 24 1
16647 34 8
16648 22 1
16648 23 1
16648 24 6
16648 34 2
16649 29 1
16650 22 1
16651 29 17
16652 3 1
16653 21 1
16654 2 1
16654 3 1
16654 5 1
16654 7 1
16654 34 1
16654 38 3
16655 3 1
16655 15 2
16655 18 1
16655 19 2
16655 20 2
16656 3 1
16656 12 3
16656 14 2
16656 24 4
16656 29 2
16656 31 8
16657 15 1
16657 31 2
16658 24 1
16659 29 1
16659 34 1
16660 21 2
16660 22 4
16661 2 9
16661 3 18
16661 15 1
16661 34 19
16662 22 1
16663 9 3
16663 10 6
16663 11 3
16664 21 33
16664 22 33
16665 20 1
16665 21 1
16665 29 6
16666 2 1
16667 3 1
16667 18 1
16667 38 3
16668 31 1
16669 18 9
16669 19 4
16669 20 6
16669 24 2
16669 26 7
16670 31 6
16671 29 2
16672 3 1
16673 24 4
16673 26 3
16674 29 20
16674 30 2
16675 34 1
16676 1 1
16676 2 11
16676 3 17
16676 34 20
16677 34 1
16678 29 1
16679 38 1
16680 2 14
16680 3 21
16680 34 32
16681 9 1
16682 8 1
16683 20 1
16683 31 9
16684 5 1
16684 29 29
16684 30 4
16685 24 1
16686 38 1
16687 3 1
16688 2 1
16689 24 1
16690 29 1
16691 1 1
16691 2 8
16691 3 24
16691 34 37
16692 34 1
16693 2 1
16694 3 1
16694 26 1
16695 3 1
16695 31 3
16695 34 3
16696 9 2
16696 10 2
16696 11 4
16697 2 2
16697 3 10
16697 10 1
16697 24 5
16697 31 9
16697 34 9
16698 3 1
16698 31 1
16699 2 2
16699 3 2
16699 34 3
16700 12 1
16700 22 1
16700 34 1
16701 9 1
16701 10 2
16701 11 2
16702 38 1
16703 28 4
16704 5 1
16705 18 1
16706 3 1
16707 9 1
16708 8 1
16708 26 1
16708 31 1
16708 34 1
16709 20 1
16710 18 1
16710 29 7
16711 12 4
16711 19 1
16712 31 2
16713 34 1
16714 17 1
16715 24 1
16716 9 1
16717 19 1
16718 20 1
16718 24 8
16719 9 9
16719 10 20
16719 11 4
16720 5 1
16720 24 1
16720 26 4
16720 29 9
16721 3 1
16722 31 1
16723 9 17
16723 10 34
16723 11 20
16724 2 1
16724 4 6
16724 5 17
16724 22 1
16724 24 2
16724 31 2
16724 38 14
16725 9 1
16726 24 10
16727 18 2
16727 19 2
16728 24 22
16728 34 1
16729 10 3
16730 16 1
16730 38 1
16731 34 1
16732 12 2
16732 18 22
16732 19 31
16732 20 10
16733 29 1
16733 38 1
16734 5 2
16734 38 3
16735 12 1
16735 31 1
16736 24 7
16736 31 2
16737 12 1
16738 3 1
16738 24 1
16739 24 15
16739 29 1
16740 9 9
16740 10 8
16740 11 7
16740 38 1
16741 24 1
16742 19 1
16742 29 1
16743 38 1
16744 5 7
16744 38 6
16745 24 1
16746 5 1
16746 24 1
16747 15 1
16747 28 1
16748 20 1
16749 22 1
16750 24 1
16751 1 1
16751 2 7
16751 3 20
16751 34 17
16752 7 1
16752 24 12
16752 31 1
16753 21 1
16754 3 1
16755 3 1
16756 16 1
16757 22 1
16758 31 2
16759 18 1
16759 23 1
16759 24 5
16760 3 1
16761 3 2
16761 21 1
16761 34 2
16762 26 1
16763 1 1
16763 2 17
16763 3 31
16763 34 33
16764 10 1
16764 26 1
16765 3 1
16766 4 1
16767 24 4
16768 9 1
16769 29 1
16770 28 6
16771 34 1
16772 3 1
16773 21 2
16773 22 1
16774 7 4
16774 8 7
16775 1 2
16775 2 29
16775 3 45
16775 34 57
16776 12 1
16777 24 1
16778 25 1
16778 26 3
16778 29 2
16779 7 5
16779 8 13
16780 2 8
16780 3 8
16780 28 2
16780 34 7
16781 5 2
16781 38 2
16782 16 1
16782 31 3
16783 29 1
16784 31 5
16785 4 1
16786 24 2
16787 5 1
16787 28 4
16788 21 9
16788 22 6
16789 5 1
16790 3 1
16791 4 11
16791 5 39
16791 38 44
16792 24 1
16792 29 3
16792 30 1
16793 21 1
16794 10 2
16795 29 4
16796 29 1
16797 38 1
16798 3 1
16798 14 1
16799 34 1
16800 3 1
16800 4 6
16800 5 34
16800 8 1
16800 38 51
16801 20 1
16801 28 3
16802 4 4
16802 5 16
16802 38 21
16803 31 3
16804 17 1
16805 5 1
16805 34 1
16806 34 1
16807 14 1
16808 31 6
16809 8 6
16809 11 1
16810 10 1
16811 24 1
16812 28 1
16813 4 1
16814 18 1
16815 38 1
16816 26 1
16816 28 1
16817 38 1
16818 3 1
16818 28 2
16819 24 1
16820 2 11
16820 3 18
16820 34 15
16821 29 1
16822 3 1
16823 21 1
16824 4 2
16824 5 8
16824 12 2
16824 14 2
16824 24 1
16824 38 21
16825 2 11
16825 3 8
16825 23 3
16825 24 13
16825 34 21
16826 19 1
16827 34 1
16828 28 1
16829 28 2
16829 29 5
16829 30 1
16830 5 1
16830 12 18
16830 14 13
16831 18 3
16831 19 1
16831 20 2
16832 12 9
16832 14 2
16833 3 1
16834 25 1
16834 26 3
16834 29 4
16835 29 7
16835 30 1
16836 3 1
16836 9 2
16836 10 6
16836 11 2
16837 17 1
16837 24 1
16838 31 1
16839 24 1
16840 8 1
16840 11 1
16841 2 1
16841 21 1
16842 18 15
16842 19 21
16842 20 18
16843 17 1
16843 34 2
16844 3 1
16845 7 3
16845 8 5
16845 22 1
16846 24 1
16847 28 1
16848 18 1
16848 19 1
16849 34 1
16850 28 5
16851 29 1
16852 24 1
16853 20 1
16854 29 1
16855 1 1
16855 2 21
16855 3 62
16855 31 1
16855 34 53
16855 38 1
16856 9 16
16856 10 11
16856 11 15
16857 5 1
16858 34 1
16859 29 9
16860 28 4
16861 4 4
16861 5 6
16861 38 9
16862 2 1
16862 4 3
16862 5 7
16862 38 6
16863 5 11
16863 10 1
16863 38 18
16864 38 1
16865 3 1
16866 12 4
16866 14 1
16867 18 1
16868 3 1
16869 9 1
16870 38 1
16871 4 2
16871 5 9
16871 34 1
16871 38 10
16872 24 9
16873 4 1
16873 16 1
16873 24 1
16874 24 1
16875 17 5
16876 19 1
16877 4 1
16877 5 7
16877 12 9
16877 14 1
16877 38 10
16878 4 8
16878 5 29
16878 19 2
16878 38 35
16879 31 1
16880 31 10
16881 17 1
16881 18 1
16881 19 1
16882 9 1
16883 19 1
16884 10 1
16885 24 5
16886 16 1
16887 29 1
16888 24 3
16888 26 1
16889 16 1
16890 21 16
16890 22 11
16891 24 10
16891 29 17
16891 30 2
16891 31 1
16892 34 1
16893 9 1
16894 2 1
16895 31 1
16896 2 1
16897 28 5
16898 31 2
16899 3 1
16899 28 4
16900 38 1
16901 1 1
16901 3 3
16901 9 1
16901 22 1
16901 34 4
16902 31 5
16903 18 13
16903 19 23
16903 20 9
16903 21 1
16903 22 1
16903 24 1
16904 18 1
16905 31 1
16906 10 1
16906 18 17
16906 19 24
16906 20 8
16907 4 1
16907 5 5
16907 18 2
16907 19 3
16907 38 6
16908 18 1
16908 19 2
16909 3 1
16910 12 1
16910 21 1
16910 34 1
16911 2 1
16911 12 2
16911 34 1
16912 1 1
16912 2 3
16912 3 9
16912 34 5
16913 10 1
16914 31 5
16915 24 12
16916 14 1
16916 24 17
16916 29 20
16916 30 1
16916 34 1
16917 21 36
16917 22 32
16918 9 1
16919 9 1
16919 10 7
16919 11 3
16920 34 1
16921 22 1
16921 23 1
16922 26 1
16923 3 1
16923 9 3
16923 10 6
16923 11 1
16924 10 1
16925 38 1
16926 3 1
16926 26 1
16927 29 4
16927 30 1
16928 3 2
16928 7 2
16928 8 3
16928 31 1
16929 31 1
16930 23 1
16930 24 12
16931 2 1
16932 28 1
16933 34 1
16934 3 1
16934 18 1
16935 5 1
16935 38 1
16936 34 2
16937 31 1
16938 5 1
16939 29 12
16939 34 1
16940 29 1
16941 24 4
16942 11 1
16943 31 3
16944 28 2
16945 2 1
16945 3 1
16945 26 8
16946 21 1
16947 31 4
16948 3 1
16948 31 1
16949 2 1
16950 21 38
16950 22 35
16950 34 1
16951 29 1
16952 29 1
16953 11 1
16954 7 1
16954 22 1
16955 31 1
16956 5 1
16956 7 13
16956 8 21
16956 30 1
16957 34 1
16958 10 1
16958 18 4
16958 19 4
16958 20 6
16958 21 3
16958 22 4
16959 10 1
16960 2 7
16960 3 17
16960 34 14
16961 24 8
16962 3 1
16963 29 2
16964 2 1
16964 19 1
16965 29 1
16966 38 1
16967 19 1
16968 2 11
16968 3 13
16968 34 9
16969 2 5
16969 3 8
16969 5 1
16969 29 11
16969 34 11
16970 23 1
16970 24 27
16971 12 1
16972 24 1
16972 38 1
16973 34 1
16974 2 6
16974 3 19
16974 26 1
16974 34 14
16975 24 1
16976 18 23
16976 19 27
16976 20 17
16977 4 8
16977 5 27
16977 38 39
16978 29 1
16979 18 1
16979 22 1
16979 26 5
16980 24 1
16980 26 2
16980 31 1
16980 38 1
16981 38 1
16982 5 1
16983 3 1
16983 21 21
16983 22 12
16984 24 1
16985 28 6
16985 38 1
16986 18 1
16987 29 5
16988 34 1
16989 1 1
16989 2 8
16989 3 17
16989 5 1
16989 34 28
16990 24 2
16991 9 1
16991 22 1
16992 3 1
16993 9 1
16994 7 1
16995 21 1
16996 2 9
16996 3 35
16996 34 52
16997 34 1
16998 18 1
16999 4 1
16999 18 2
16999 19 4
16999 20 1
17000 3 1
17001 5 1
17002 38 1
17003 15 1
17003 21 1
17003 24 15
17004 5 1
17004 24 1
17005 1 1
17005 2 11
17005 3 6
17005 17 1
17005 19 1
17005 34 15
17006 5 1
17006 21 1
17006 26 2
17007 38 1
17008 3 1
17009 24 1
17010 19 1
17010 20 1
17011 21 1
17012 4 1
17012 5 7
17012 38 4
17013 2 1
17013 34 1
17014 28 6
17015 29 1
17016 8 1
17017 2 2
17017 3 2
17017 34 4
17018 29 1
17019 2 8
17019 3 14
17019 16 1
17019 34 15
17020 11 1
17021 1 1
17022 9 12
17022 10 24
17022 11 11
17023 18 28
17023 19 22
17023 20 11
17023 31 1
17024 34 2
17025 10 1
17026 31 1
17027 18 1
17028 12 1
17028 14 1
17028 19 1
17028 21 2
17028 22 2
17029 1 1
17029 2 16
17029 3 27
17029 34 35
17030 29 9
17031 31 2
17032 5 1
17033 24 1
17034 24 9
17035 22 1
17035 34 1
17036 18 45
17036 19 40
17036 20 19
17037 3 1
17037 29 19
17038 29 1
17039 24 1
17040 38 1
17041 19 1
17042 24 1
17042 31 26
17043 5 1
17043 21 8
17043 22 11
17043 24 1
17043 34 1
17044 38 1
17045 34 1
17046 4 1
17046 5 3
17046 9 1
17046 21 3
17046 22 1
17046 38 4
17047 3 1
17048 18 1
17049 18 1
17049 31 15
17050 26 3
17050 31 1
17050 34 1
17051 28 1
17052 26 1
17052 31 15
17053 24 16
17054 3 1
17054 12 8
17054 13 1
17054 14 6
17055 14 1
17056 24 1
17057 3 1
17057 29 1
17057 30 1
17058 13 1
17059 1 1
17059 2 8
17059 3 32
17059 21 1
17059 34 43
17060 10 2
17060 29 1
17061 29 12
17061 30 1
17062 18 1
17062 31 1
17063 9 2
17063 10 7
17063 11 4
17064 4 10
17064 5 36
17064 38 41
17065 7 1
17065 8 5
17066 5 1
17067 21 1
17067 28 4
17067 38 1
17068 2 5
17068 3 10
17068 34 12
17069 4 1
17069 21 1
17069 22 2
17070 18 1
17071 11 1
17072 11 1
17073 34 1
17074 38 1
17075 3 1
17075 9 2
17075 34 2
17076 29 2
17077 3 1
17078 34 1
17079 21 1
17080 2 7
17080 3 3
17080 18 1
17080 34 18
17081 19 1
17082 5 6
17083 2 1
17083 24 1
17084 34 1
17085 4 4
17085 5 8
17085 38 19
17086 11 1
17086 18 1
17087 29 8
17087 34 1
17088 19 1
17089 24 1
17089 28 6
17089 34 1
17090 19 1
17091 25 2
17091 26 5
17092 9 1
17092 19 1
17093 5 1
17094 18 9
17094 19 11
17094 20 4
17095 34 1
17096 34 1
17097 5 1
17098 3 1
17099 24 1
17100 31 1
17101 11 1
17102 2 1
17103 12 10
17103 13 2
17103 14 14
17103 31 1
17104 31 1
17105 24 1
17106 19 1
17107 24 1
17108 18 2
17108 28 1
17109 28 2
17110 18 6
17110 19 18
17110 20 8
17111 8 4
17112 3 1
17112 22 1
17112 26 2
17113 31 4
17114 5 1
17114 38 1
17115 3 1
17115 29 11
17115 30 1
17116 5 1
17116 31 1
17117 29 1
17118 29 1
17119 15 1
17120 24 1
17121 12 3
17121 14 3
17122 18 1
17123 28 1
17124 2 9
17124 3 9
17124 34 11
17125 7 1
17126 9 1
17127 21 5
17127 22 2
17128 34 1
17129 31 5
17129 38 1
17130 4 3
17130 5 12
17130 24 1
17130 38 27
17131 26 1
17132 14 1
17133 34 1
17134 31 1
17135 11 1
17135 15 1
17135 18 1
17136 38 3
17137 5 1
17137 28 3
17138 24 1
17139 3 1
17139 12 1
17139 18 1
17139 29 1
17140 15 11
17140 16 4
17140 17 8
17141 15 1
17142 2 13
17142 3 8
17142 12 1
17142 26 2
17142 34 14
17143 21 1
17144 29 10
17144 30 1
17145 10 1
17146 29 1
17147 12 1
17147 14 1
17148 34 1
17149 20 1
17150 38 1
17151 19 1
17152 34 1
17153 14 3
17153 18 2
17153 19 4
17154 29 10
17154 31 4
17155 34 1
17156 3 1
17156 26 1
17157 10 3
17157 11 2
17158 34 1
17159 15 1
17159 17 2
17159 29 1
17160 18 1
17160 26 1
17160 34 1
17161 4 3
17161 5 9
17161 38 8
17162 5 1
17162 28 2
17163 34 1
17164 26 2
17164 29 15
17164 38 1
17165 4 2
17165 5 13
17165 19 1
17165 38 14
17166 28 1
17167 21 1
17167 22 1
17168 22 1
17169 9 4
17169 10 7
17169 11 4
17169 24 1
17170 26 5
17171 9 1
17171 24 1
17172 38 1
17173 2 8
17173 3 15
17173 34 15
17174 4 1
17175 24 1
17175 34 3
17176 2 1
17177 2 3
17177 3 1
17178 3 1
17179 5 1
17179 23 1
17179 24 13
17180 12 1
17180 15 1
17181 24 5
17182 2 3
17182 3 3
17182 34 4
17183 9 2
17183 10 1
17183 11 2
17184 5 1
17185 19 1
17186 31 1
17187 5 1
17188 24 1
17189 4 1
17190 19 2
17190 20 1
17191 21 4
17191 22 7
17192 21 18
17192 22 6
17193 24 4
17193 29 1
17193 38 1
17194 18 17
17194 19 16
17194 20 5
17195 3 1
17195 24 1
17196 21 3
17196 22 4
17197 29 1
17198 18 2
17199 24 2
17200 7 1
17200 28 3
17201 21 3
17201 22 2
17201 31 1
17202 26 1
17203 23 1
17203 24 11
17204 24 1
17204 31 3
17205 5 1
17205 15 3
17205 16 6
17205 17 5
17206 34 1
17207 4 5
17207 5 44
17207 11 1
17207 38 24
17209 5 1
17210 19 1
17211 4 1
17211 14 1
17211 15 1
17211 29 5
17212 21 3
17213 4 1
17213 5 4
17213 38 9
17214 34 1
17215 26 7
17216 8 1
17216 14 1
17216 28 1
17217 5 2
17217 29 2
17217 38 1
17218 29 12
17218 30 2
17219 5 1
17220 29 1
17221 24 5
17222 5 1
17222 34 1
17223 2 1
17223 3 2
17224 18 3
17224 19 2
17224 38 1
17225 5 1
17226 29 8
17227 26 3
17227 29 6
17228 2 1
17228 3 1
17228 4 1
17228 5 6
17228 24 1
17228 29 1
17229 3 1
17230 31 1
17231 23 1
17232 24 2
17233 34 1
17234 34 1
17235 24 1
17236 2 1
17236 3 1
17237 26 2
17238 3 1
17238 15 68
17238 16 28
17238 17 36
17239 28 5
17240 18 33
17240 19 36
17240 20 10
17240 28 1
17241 2 3
17241 24 1
17241 29 1
17242 24 25
17242 29 1
17243 34 1
17244 23 1
17244 24 4
17245 2 3
17245 3 12
17245 34 6
17246 15 19
17246 19 1
17247 5 1
17247 8 1
17247 15 2
17247 16 1
17247 17 1
17248 2 13
17248 3 30
17248 8 1
17248 28 3
17248 31 2
17248 34 24
17249 3 1
17250 16 1
17251 15 1
17251 26 2
17252 5 1
17252 31 1
17253 24 1
17253 28 1
17254 34 1
17255 5 1
17255 27 1
17255 28 1
17256 28 1
17257 26 1
17258 24 1
17259 31 4
17260 5 2
17261 21 23
17261 22 17
17262 24 18
17262 29 10
17262 30 1
17263 2 1
17263 8 1
17264 10 1
17265 26 2
17265 30 1
17266 19 1
17267 31 3
17269 28 3
17270 8 1
17271 24 3
17272 1 1
17272 2 22
17272 3 23
17272 34 31
17273 24 1
17273 34 1
17274 17 1
17275 25 3
17275 26 8
17276 2 1
17277 2 1
17278 26 1
17279 24 2
17280 8 1
17281 3 1
17281 12 2
17281 38 1
17282 5 1
17283 28 1
17284 15 3
17284 16 6
17284 17 2
17285 12 9
17285 14 10
17286 4 3
17286 5 21
17286 38 19
17287 18 1
17288 26 3
17289 22 1
17290 23 2
17290 24 21
17291 21 18
17291 22 22
17292 4 2
17292 5 2
17292 14 1
17292 38 6
17293 2 1
17293 29 1
17293 34 1
17294 21 1
17295 26 1
17295 38 1
17296 34 1
17297 19 1
17298 5 1
17299 17 1
17300 2 1
17300 20 1
17300 25 1
17300 26 10
17301 29 6
17302 34 1
17303 2 1
17303 8 2
17304 29 22
17304 30 1
17305 31 1
17306 29 1
17307 29 8
17307 34 1
17308 2 1
17308 15 2
17308 17 1
17308 25 1
17308 26 13
17308 29 11
17309 10 1
17310 11 1
17311 3 1
17312 16 1
17313 24 21
17314 7 1
17314 19 1
17315 29 1
17316 5 1
17317 9 1
17318 31 1
17319 2 1
17319 3 1
17319 34 4
17320 21 12
17320 22 6
17321 9 2
17321 10 1
17321 11 1
17321 19 1
17322 28 1
17323 9 1
17324 9 8
17324 10 14
17324 11 4
17324 34 2
17325 34 1
17326 21 1
17326 22 1
17327 18 2
17327 19 1
17327 20 1
17328 5 2
17328 38 5
17329 10 1
17330 21 1
17331 3 1
17332 21 1
17333 21 1
17334 18 1
17335 24 1
17336 2 1
17336 4 1
17337 4 4
17337 5 14
17337 21 1
17337 22 3
17337 38 19
17338 38 1
17339 11 1
17340 9 1
17341 24 2
17341 34 1
17342 29 1
17343 5 1
17344 34 1
17345 3 1
17345 18 3
17346 21 4
17346 22 1
17347 28 3
17348 31 3
17349 14 2
17350 4 1
17351 24 1
17352 2 1
17352 24 1
17352 29 10
17352 30 2
17352 34 1
17353 4 1
17353 20 1
17353 21 1
17354 19 1
17355 19 1
17355 26 1
17356 5 1
17356 38 1
17357 21 1
17357 28 1
17357 34 2
17358 19 1
17359 5 1
17359 12 1
17359 18 3
17359 19 6
17359 20 4
17360 26 2
17361 3 1
17362 3 1
17363 31 1
17364 7 1
17364 12 1
17365 30 1
17366 38 1
17367 3 1
17368 29 13
17368 30 2
17369 25 1
17369 26 1
17369 29 2
17370 28 1
17371 24 1
17372 3 3
17372 5 1
17372 34 3
17373 11 1
17374 3 1
17374 18 4
17374 19 3
17375 11 1
17375 21 1
17375 28 3
17375 38 1
17376 21 1
17377 21 1
17377 23 1
17377 29 1
17378 24 7
17379 2 1
17379 3 4
17379 4 1
17379 34 4
17380 17 1
17380 31 1
17381 4 2
17381 5 1
17381 38 5
17382 26 1
17383 16 1
17384 38 1
17385 24 1
17386 31 7
17387 38 1
17388 24 1
17389 12 1
17390 24 1
17391 21 1
17392 18 1
17393 5 1
17394 25 1
17395 18 5
17395 19 2
17395 20 5
17396 29 2
17397 38 1
17398 21 1
17399 29 2
17400 38 2
17401 26 3
17402 2 12
17402 3 25
17402 5 1
17402 34 23
17403 8 1
17404 34 1
17405 28 1
17405 38 1
17406 29 6
17406 30 1
17407 12 1
17407 14 3
17408 7 1
17409 16 1
17410 4 3
17410 5 17
17410 15 7
17410 17 5
17410 24 1
17410 38 13
17411 31 1
17412 26 1
17412 29 2
17413 10 1
17414 9 1
17415 34 1
17416 2 1
17416 3 1
17417 21 1
17418 20 1
17419 29 1
17420 25 1
17420 26 10
17420 34 2
17421 10 1
17421 18 1
17422 3 1
17422 29 10
17422 30 1
17423 15 1
17424 34 1
17425 5 1
17425 12 5
17425 14 4
17426 19 1
17427 21 1
17427 22 1
17428 18 1
17429 8 1
17430 12 1
17431 3 1
17432 3 1
17433 10 1
17434 8 1
17434 31 11
17435 2 8
17435 3 25
17435 34 26
17436 23 1
17436 24 11
17437 12 4
17437 14 4
17437 21 4
17437 22 4
17438 24 33
17438 26 1
17438 34 2
17439 24 25
17440 15 2
17441 5 1
17441 24 24
17441 29 1
17441 38 1
17442 3 1
17443 5 1
17443 24 1
17444 20 1
17445 18 9
17445 19 7
17445 20 2
17445 38 1
17446 29 2
17447 38 1
17448 7 6
17448 8 20
17449 8 1
17449 21 1
17450 9 1
17450 19 1
17450 20 1
17451 18 1
17452 3 1
17453 3 1
17454 2 2
17454 3 3
17454 28 2
17454 31 4
17454 34 4
17455 7 1
17456 1 1
17456 2 21
17456 3 46
17456 5 1
17456 19 1
17456 34 61
17457 7 1
17457 18 1
17458 5 6
17458 22 1
17458 38 4
17459 2 1
17460 19 1
17461 9 1
17462 5 1
17463 21 1
17464 15 1
17465 2 1
17465 19 1
17465 29 30
17465 30 2
17466 30 1
17467 1 1
17467 2 21
17467 3 27
17467 34 49
17468 3 2
17468 26 3
17468 29 1
17469 2 6
17469 3 9
17469 26 3
17469 29 3
17469 34 9
17470 26 1
17471 8 3
17471 19 1
17472 19 1
17473 2 2
17473 3 5
17473 34 2
17474 3 1
17475 34 1
17476 3 1
17476 7 16
17476 8 33
17477 2 10
17477 3 8
17477 29 6
17477 34 13
17478 34 1
17479 8 1
17480 24 1
17481 3 1
17482 18 14
17482 19 13
17482 20 7
17482 22 1
17482 29 1
17483 29 2
17484 4 1
17484 5 9
17484 38 9
17485 34 1
17486 9 1
17486 10 6
17486 11 2
17486 18 10
17486 19 10
17486 20 4
17487 20 1
17487 29 6
17487 34 1
17488 38 1
17489 2 4
17489 3 6
17489 21 2
17489 34 5
17490 9 1
17491 9 6
17491 10 9
17491 11 4
17492 2 1
17493 9 1
17493 31 18
17494 31 1
17495 7 1
17495 18 3
17495 19 2
17495 20 2
17496 31 2
17496 34 1
17497 12 2
17497 14 1
17498 18 3
17498 19 3
17498 20 3
17499 3 1
17499 24 2
17499 31 5
17500 19 2
17501 22 1
17502 24 1
17503 24 1
17504 25 1
17504 26 1
17505 5 1
17505 8 2
17505 18 1
17505 19 1
17506 31 4
17507 4 1
17508 24 2
17509 1 1
17509 2 24
17509 3 33
17509 5 1
17509 11 1
17509 24 1
17509 34 32
17510 18 28
17510 19 17
17510 20 3
17510 30 1
17511 18 1
17512 15 1
17513 21 2
17513 24 3
17513 29 1
17513 38 1
17514 5 1
17514 14 1
17515 34 1
17516 3 1
17516 8 1
17517 8 1
17517 21 6
17517 22 6
17518 23 1
17518 24 6
17519 18 1
17519 34 2
17520 3 1
17521 29 1
17522 22 2
17523 34 1
17524 2 1
17524 4 1
17524 21 1
17524 28 10
17525 34 1
17526 5 1
17527 3 1
17528 24 6
17529 21 14
17529 22 9
17530 3 1
17530 8 1
17530 28 2
17531 2 1
17532 16 1
17532 34 1
17533 5 2
17533 12 7
17533 14 1
17533 17 1
17533 38 2
17534 10 1
17535 2 6
17535 3 5
17535 34 10
17536 25 1
17537 3 1
17537 21 1
17538 31 1
17539 2 1
17539 5 1
17539 19 1
17540 29 9
17541 19 1
17542 28 5
17543 4 3
17543 5 12
17543 38 21
17544 24 1
17545 5 1
17546 28 4
17547 4 3
17547 5 13
17547 38 10
17548 31 1
17549 38 1
17550 4 11
17550 5 34
17550 38 43
17551 17 1
17552 2 1
17552 31 1
17553 12 28
17553 14 29
17554 31 2
17555 24 8
17556 15 2
17556 17 3
17557 24 1
17558 29 10
17559 18 1
17560 5 1
17561 12 6
17561 14 2
17561 34 1
17562 34 1
17563 16 1
17564 5 1
17565 22 1
17565 25 2
17565 26 2
17565 29 1
17566 18 18
17566 19 13
17566 20 7
17567 18 1
17567 21 1
17567 29 34
17567 30 1
17568 24 1
17569 31 16
17570 2 1
17570 3 1
17570 4 3
17570 5 1
17570 8 1
17570 31 1
17570 34 1
17570 38 6
17571 38 1
17572 2 3
17572 3 3
17572 34 7
17573 24 11
17574 5 2
17574 18 1
17574 34 1
17574 38 1
17575 10 1
17576 31 2
17577 28 1
17578 9 1
17578 34 1
17579 21 7
17579 22 11
17580 24 4
17581 2 10
17581 3 9
17581 29 1
17581 34 17
17582 1 1
17582 2 1
17582 3 4
17582 34 3
17583 10 1
17584 7 1
17584 8 1
17585 5 1
17585 15 7
17585 16 3
17585 17 7
17586 1 1
17586 2 1
17586 3 9
17586 29 1
17586 34 10
17587 3 1
17588 5 1
17589 2 1
17590 27 1
17590 28 3
17591 3 1
17592 29 11
17593 3 1
17594 3 1
17595 21 4
17595 22 3
17596 34 1
17597 10 1
17598 8 4
17598 34 1
17599 18 21
17599 19 21
17599 20 16
17599 38 1
17600 24 2
17600 26 1
17601 19 1
17602 20 1
17603 28 1
17604 3 1
17604 28 1
17605 26 1
17606 4 1
17607 10 1
17607 18 6
17607 19 14
17607 20 1
17608 4 8
17608 5 4
17608 29 2
17608 38 24
17609 19 1
17610 21 4
17610 22 3
17611 3 1
17611 4 1
17611 28 1
17612 24 6
17613 3 3
17613 34 3
17614 24 21
17614 34 1
17615 38 1
17616 14 1
17616 31 2
17617 18 17
17617 19 12
17617 20 9
17618 10 3
17619 18 1
17619 29 19
17619 30 2
17620 24 1
17621 29 3
17622 2 2
17623 24 1
17623 31 7
17623 38 1
17624 7 3
17624 8 4
17625 26 2
17626 2 1
17627 9 1
17627 38 1
17628 9 1
17629 24 1
17629 34 1
17630 4 3
17630 5 15
17630 38 10
17631 31 1
17632 24 1
17633 38 1
17634 21 22
17634 22 12
17634 24 1
17635 10 1
17636 34 1
17637 24 3
17638 3 1
17639 29 13
17639 30 2
17640 2 3
17640 3 10
17640 34 20
17640 38 1
17641 38 1
17642 21 6
17642 22 4
17643 19 1
17644 18 1
17645 3 1
17645 38 1
17646 3 1
17646 4 1
17646 5 3
17646 38 1
17647 4 1
17648 3 1
17649 2 1
17650 11 1
17651 31 1
17652 24 5
17652 29 4
17652 31 2
17653 38 2
17654 2 2
17654 3 9
17654 18 1
17654 31 1
17654 34 9
17655 10 1
17656 34 1
17657 18 1
17658 2 4
17658 3 5
17658 10 1
17658 21 1
17658 24 8
17658 34 9
17658 38 1
17659 29 1
17660 3 1
17661 10 1
17662 5 1
17662 12 10
17662 14 8
17663 2 3
17663 3 11
17663 34 7
17663 38 1
17664 9 12
17664 10 18
17664 11 10
17664 21 1
17665 7 1
17666 31 1
17667 38 1
17668 24 1
17669 12 4
17669 14 2
17669 21 1
17669 38 1
17670 3 1
17671 9 1
17672 3 1
17673 18 1
17673 28 1
17674 10 1
17675 3 1
17676 22 1
17677 29 1
17678 3 1
17678 5 1
17679 9 26
17679 10 33
17679 11 15
17680 31 1
17681 16 1
17682 29 1
17683 26 1
17683 38 1
17684 12 2
17684 14 1
17684 21 2
17684 24 1
17685 5 5
17685 31 10
17686 5 1
17687 8 1
17688 19 1
17688 20 2
17689 34 1
17690 23 2
17690 24 20
17691 21 1
17692 10 1
17693 9 6
17693 10 18
17693 11 17
17693 38 1
17694 2 1
17694 18 1
17695 34 1
17696 12 1
17696 22 1
17696 24 4
17697 24 1
17698 23 1
17698 24 15
17699 28 1
17700 15 1
17701 18 7
17701 19 9
17701 20 1
17702 5 3
17702 38 5
17703 11 1
17704 10 1
17705 3 1
17706 14 1
17706 18 17
17706 19 15
17706 20 4
17707 24 1
17708 34 1
17709 3 1
17710 18 1
17710 19 1
17710 20 1
17711 22 1
17712 9 1
17712 12 1
17713 1 2
17713 2 12
17713 3 19
17713 34 35
17714 14 1
17715 5 1
17716 23 1
17716 24 19
17716 25 2
17716 26 19
17717 18 2
17717 19 9
17717 20 4
17717 34 1
17718 12 1
17719 14 1
17720 3 1
17720 7 1
17720 34 1
17721 2 1
17721 28 6
17722 18 11
17722 19 14
17722 20 4
17723 5 1
17724 38 1
17725 29 5
17726 19 1
17727 26 5
17728 18 1
17729 18 6
17729 19 14
17730 2 6
17730 3 8
17730 34 12
17731 15 3
17731 16 2
17731 17 2
17732 20 1
17733 24 1
17734 18 3
17734 19 2
17735 29 18
17735 30 1
17736 24 4
17737 18 44
17737 19 29
17737 20 19
17738 5 1
17739 22 1
17740 24 16
17741 25 2
17741 26 2
17742 4 1
17742 18 6
17742 19 6
17742 20 4
17743 14 1
17743 34 1
17744 21 2
17745 3 1
17746 4 6
17746 5 33
17746 38 36
17747 34 1
17748 11 1
17749 24 3
17750 1 1
17750 2 2
17750 3 2
17750 24 1
17750 34 6
17751 21 1
17752 1 1
17752 2 1
17752 3 3
17752 21 1
17752 34 7
17753 15 5
17753 16 1
17753 17 1
17753 19 3
17753 20 2
17754 24 3
17755 2 6
17755 3 12
17755 34 9
17756 5 2
17756 16 1
17756 38 2
17757 2 1
17757 19 1
17758 12 20
17758 14 11
17759 20 1
17760 34 1
17761 21 26
17761 22 12
17761 31 1
17761 34 1
17761 38 1
17762 2 1
17762 3 1
17762 34 3
17763 4 1
17763 8 1
17763 16 1
17764 34 1
17765 24 2
17766 5 1
17767 24 1
17768 34 1
17769 4 12
17769 5 45
17769 38 59
17770 22 1
17770 24 2
17771 15 27
17771 16 12
17771 17 12
17772 5 1
17773 2 1
17774 2 1
17775 5 1
17776 7 1
17777 2 4
17777 3 7
17777 34 6
17778 3 1
17779 11 1
17779 26 19
17780 2 21
17780 3 50
17780 34 65
17781 7 1
17781 8 10
17781 10 1
17781 21 1
17782 34 1
17783 24 1
17784 7 9
17784 8 22
17784 24 1
17785 18 1
17786 31 2
17787 10 1
17787 24 3
17788 12 2
17788 14 2
17789 22 1
17790 18 24
17790 19 20
17790 20 8
17791 31 5
17792 20 1
17792 31 2
17793 22 1
17793 24 1
17794 19 1
17794 20 1
17795 29 6
17795 30 1
17796 21 1
17797 12 3
17797 14 3
17798 24 4
17799 3 1
17799 38 1
17800 10 1
17800 11 1
17801 17 1
17802 29 3
17803 21 21
17803 22 19
17804 24 15
17805 9 11
17805 10 25
17805 11 11
17806 5 1
17807 9 1
17808 5 1
17808 24 1
17808 26 6
17809 9 10
17809 10 10
17809 11 6
17810 4 1
17811 21 1
17812 38 1
17813 29 1
17814 9 1
17815 4 8
17815 5 12
17815 9 2
17815 11 1
17815 38 18
17816 26 1
17817 9 3
17817 11 1
17817 34 1
17818 34 1
17819 26 10
17820 1 1
17820 2 20
17820 3 28
17820 34 27
17821 14 1
17822 5 1
17823 5 1
17823 18 1
17823 22 1
17824 18 2
17824 19 1
17825 7 1
17825 8 2
17826 4 1
17826 5 1
17826 38 1
17827 10 2
17827 11 1
17828 24 1
17829 30 1
17830 9 19
17830 10 38
17830 11 33
17830 19 1
17830 21 1
17830 24 1
17831 21 1
17832 23 1
17833 14 1
17834 19 6
17835 38 1
17836 38 1
17837 2 1
17837 28 1
17838 14 1
17838 24 7
17839 3 1
17840 31 3
17841 3 5
17841 24 1
17841 34 4
17842 15 1
17842 29 12
17843 2 1
17844 14 1
17844 21 13
17844 22 3
17844 38 1
17845 24 9
17846 31 5
17847 21 1
17848 24 8
17849 12 6
17849 14 4
17850 12 1
17851 10 1
17852 21 1
17853 2 5
17853 3 13
17853 34 11
17854 4 2
17854 5 15
17854 38 13
17855 34 1
17856 24 9
17857 31 8
17857 34 1
17858 5 1
17858 15 1
17858 31 1
17858 38 5
17859 18 2
17859 26 1
17860 14 1
17861 3 1
17861 7 1
17861 8 1
17862 31 1
17863 5 1
17864 21 29
17864 22 21
17865 34 1
17866 8 1
17866 19 1
17867 3 1
17867 38 1
17868 14 1
17869 12 1
17870 18 3
17870 20 2
17871 10 1
17871 18 1
17872 28 4
17873 7 3
17873 8 1
17873 18 3
17873 19 5
17873 20 1
17874 1 4
17874 2 15
17874 3 35
17874 8 1
17874 34 43
17874 38 1
17875 11 1
17876 4 3
17876 5 9
17876 38 10
17877 29 1
17878 5 1
17878 7 7
17878 8 18
17878 11 1
17879 34 1
17880 9 1
17880 20 1
17880 21 1
17881 2 4
17881 3 2
17882 4 1
17882 5 2
17882 31 1
17882 38 4
17883 3 1
17884 7 5
17884 8 5
17885 7 5
17885 8 15
17885 24 1
17886 24 1
17887 20 1
17888 19 1
17889 8 1
17890 19 1
17891 7 1
17891 15 1
17892 3 1
17892 18 1
17892 19 2
17892 20 1
17893 10 1
17894 7 1
17895 18 21
17895 19 22
17895 20 3
17896 9 1
17897 5 1
17897 34 1
17898 9 1
17899 31 8
17900 2 1
17900 5 1
17901 12 17
17901 14 6
17901 15 32
17901 16 25
17901 17 33
17902 38 1
17903 15 4
17903 16 1
17903 17 5
17904 7 3
17904 8 4
17905 2 1
17906 4 8
17906 5 23
17906 38 31
17907 5 1
17908 2 1
17908 22 2
17908 25 1
17908 28 12
17909 11 1
17910 15 1
17911 21 1
17912 26 9
17912 29 1
17913 7 18
17913 8 19
17914 34 1
17915 4 1
17915 29 11
17915 30 2
17916 14 1
17917 38 1
17918 18 1
17919 12 6
17919 34 1
17920 5 3
17920 38 1
17921 1 1
17921 2 24
17921 3 32
17921 24 10
17921 34 44
17922 21 1
17922 25 1
17922 26 10
17923 17 1
17923 31 2
17923 38 1
17924 29 1
17925 24 1
17926 21 1
17926 28 1
17927 29 1
17928 24 1
17929 2 1
17930 19 1
17930 31 20
17931 3 1
17932 5 1
17933 10 4
17933 11 2
17934 2 1
17935 29 1
17936 31 1
17937 38 1
17938 29 9
17939 14 1
17940 15 1
17941 11 1
17942 26 3
17943 34 1
17944 7 5
17944 8 7
17945 3 1
17946 28 6
17947 29 1
17948 4 2
17948 5 3
17948 38 4
17949 10 1
17949 29 30
17949 30 2
17950 2 1
17950 5 1
17950 7 9
17950 8 14
17951 34 1
17952 20 1
17953 24 18
17954 24 1
17954 26 2
17954 29 4
17954 38 1
17955 18 12
17955 19 14
17956 1 2
17956 2 13
17956 3 20
17956 34 32
17957 21 1
17957 38 2
17958 12 1
17958 29 1
17959 24 1
17960 15 1
17961 2 1
17962 28 1
17963 21 4
17963 22 1
17964 29 2
17965 8 1
17966 31 4
17967 2 1
17968 5 1
17969 15 4
17969 16 2
17969 17 2
17970 19 1
17971 5 1
17972 31 1
17973 5 1
17973 15 1
17974 3 1
17974 11 1
17974 34 3
17975 19 1
17976 38 1
17977 9 1
17978 18 10
17978 19 9
17978 20 6
17979 3 1
17979 31 2
17980 26 1
17981 29 4
17982 3 1
17983 5 1
17983 18 27
17983 19 25
17983 20 4
17984 24 1
17985 7 1
17985 12 5
17985 13 1
17985 14 8
17985 24 1
17986 2 8
17986 3 10
17986 34 7
17988 2 1
17988 3 7
17988 24 3
17988 34 4
17989 38 1
17990 38 1
17991 3 1
17991 4 13
17991 5 47
17991 38 52
17992 20 1
17992 26 4
17992 34 1
17992 38 1
17993 18 4
17993 19 11
17993 20 5
17994 2 1
17995 31 3
17996 21 1
17997 18 1
17997 24 1
17998 29 2
17998 34 1
17999 15 1
17999 21 14
17999 22 13
17999 24 1
17999 31 4
18000 3 1
18001 25 2
18001 26 8
18002 22 1
18003 20 1
18004 3 1
18005 11 16
18005 19 1
18006 29 1
18007 2 1
18008 3 1
18009 21 13
18009 22 4
18010 18 1
18010 29 34
18011 28 11
18011 38 1
18012 2 1
18012 3 3
18012 34 7
18013 24 7
18014 19 1
18015 10 2
18015 31 1
18015 38 1
18016 29 1
18017 29 1
18018 3 1
18018 5 1
18018 23 1
18018 24 16
18019 9 1
18019 28 1
18020 18 5
18020 19 6
18020 20 1
18021 9 1
18021 11 2
18021 21 2
18021 22 1
18022 24 1
18022 29 5
18023 2 1
18024 31 1
18025 18 1
18025 20 1
18026 4 3
18026 5 16
18026 38 9
18027 3 1
18027 19 1
18028 19 1
18029 8 1
18029 18 23
18029 19 22
18029 20 6
18030 22 1
18031 18 1
18032 29 1
18033 24 4
18034 31 17
18035 23 2
18035 24 14
18036 17 2
18037 24 1
18038 3 1
18039 29 1
18040 3 1
18041 29 19
18041 30 2
18042 3 1
18042 28 1
18043 24 1
18043 33 1
18044 15 3
18045 24 1
18046 34 1
18047 31 4
18048 24 2
18049 2 3
18049 3 13
18049 18 1
18049 19 1
18049 20 1
18049 34 16
18050 5 1
18051 24 4
18052 9 3
18052 10 1
18052 11 1
18052 21 1
18053 9 1
18054 26 1
18055 9 1
18055 19 1
18055 34 1
18056 11 1
18056 21 31
18056 22 16
18057 28 4
18058 16 1
18058 17 2
18059 22 1
18060 28 11
18061 3 1
18062 16 1
18063 31 1
18064 2 2
18064 3 4
18064 24 5
18064 29 2
18064 34 5
18065 24 1
18066 2 5
18066 3 4
18066 23 1
18066 24 1
18066 34 3
18067 28 12
18068 31 1
18069 8 2
18070 5 1
18070 12 21
18070 13 1
18070 14 14
18071 31 7
18072 2 2
18072 3 2
18072 10 1
18072 24 1
18072 29 3
18072 34 2
18072 38 1
18073 31 2
18074 12 1
18075 9 15
18075 10 5
18075 11 2
18076 26 1
18077 38 1
18078 34 1
18079 12 7
18079 13 1
18079 14 4
18079 16 1
18080 4 8
18080 5 40
18080 38 27
18081 4 4
18081 5 14
18081 38 31
18082 24 1
18083 3 1
18084 29 7
18084 30 1
18085 3 1
18086 29 2
18087 5 1
18087 24 16
18087 38 1
18088 15 1
18088 16 2
18089 12 1
18090 18 1
18090 19 2
18091 2 1
18092 5 1
18093 2 1
18094 24 14
18095 24 3
18096 34 1
18097 34 1
18098 31 6
18099 20 1
18100 2 2
18100 3 3
18100 31 4
18100 34 1
18101 25 2
18101 26 9
18102 5 1
18103 3 1
18104 4 3
18104 12 3
18104 13 2
18104 38 3
18105 8 1
18106 3 1
18107 3 1
18107 11 1
18108 19 1
18108 29 16
18108 30 1
18109 38 1
18110 21 1
18110 29 18
18110 30 1
18111 38 1
18112 5 1
18112 38 2
18113 38 1
18114 19 1
18115 22 1
18116 3 3
18116 34 1
18117 5 5
18117 21 1
18117 38 4
18118 29 1
18118 31 1
18119 29 2
18120 2 2
18120 3 6
18120 31 5
18120 34 6
18121 24 2
18122 27 1
18122 28 2
18122 29 8
18122 30 1
18123 3 1
18123 21 1
18123 29 1
18124 21 1
18125 1 2
18125 2 5
18125 3 9
18125 24 1
18125 34 11
18126 31 3
18126 38 1
18127 21 14
18127 22 13
18128 3 1
18128 38 1
18129 12 9
18129 14 2
18130 8 1
18131 21 1
18132 3 1
18133 5 1
18133 21 2
18134 1 1
18134 2 4
18134 3 7
18134 24 1
18134 34 9
18136 31 1
18137 18 16
18137 19 6
18137 20 2
18137 26 1
18138 28 1
18139 24 11
18139 34 1
18139 38 2
18140 34 1
18141 38 1
18142 34 1
18143 11 1
18144 7 1
18144 8 3
18145 2 1
18146 2 1
18147 34 1
18148 22 1
18149 29 9
18150 38 1
18151 3 1
18151 34 1
18152 12 2
18152 13 1
18152 14 2
18152 21 1
18152 22 1
18153 5 1
18153 12 1
18154 38 1
18155 34 1
18156 19 1
18156 20 3
18157 5 1
18158 11 1
18159 19 1
18160 26 1
18161 19 1
18162 31 4
18162 34 1
18163 4 6
18163 5 14
18163 19 1
18163 24 4
18163 38 18
18164 31 5
18165 38 1
18166 15 7
18166 16 6
18166 17 5
18167 5 1
18167 28 1
18167 34 1
18168 3 1
18169 29 1
18170 17 1
18171 15 1
18172 31 20
18173 29 1
18174 5 1
18175 5 1
18176 5 1
18177 38 1
18178 12 1
18179 31 11
18180 12 5
18180 14 2
18180 18 1
18180 24 1
18180 34 1
18181 21 20
18181 22 8
18182 34 1
18183 38 1
18184 2 1
18184 26 1
18185 3 1
18185 12 9
18185 13 1
18185 14 5
18185 19 1
18186 34 1
18187 17 1
18188 2 1
18188 3 1
18189 18 1
18190 21 1
18191 24 24
18192 2 1
18192 4 1
18192 25 1
18192 26 13
18193 12 1
18193 18 3
18193 19 2
18193 20 2
18194 4 1
18194 12 4
18194 14 5
18194 38 1
18195 29 1
18196 2 1
18196 3 1
18196 29 11
18196 30 2
18196 34 3
18197 34 1
18198 12 7
18198 14 7
18198 24 1
18199 24 1
18200 12 1
18200 31 6
18200 34 1
18201 26 17
18202 24 1
18203 2 13
18203 3 24
18203 34 25
18204 18 4
18205 3 1
18206 7 1
18207 3 1
18208 21 1
18208 24 1
18209 2 1
18210 3 1
18211 10 1
18212 34 1
18213 18 16
18213 19 22
18213 20 7
18214 2 6
18214 3 24
18214 5 1
18214 31 1
18214 34 21
18215 4 2
18215 5 4
18215 38 2
18216 1 1
18216 18 3
18216 19 3
18216 20 1
18216 34 1
18217 34 1
18218 15 1
18219 26 1
18219 31 1
18219 38 1
18220 2 1
18220 21 23
18220 22 15
18221 23 1
18221 24 33
18222 34 1
18223 31 1
18224 21 11
18224 22 8
18225 1 1
18226 24 1
18226 28 1
18227 18 10
18227 19 18
18227 20 6
18228 7 1
18228 31 1
18229 18 1
18230 8 2
18231 3 1
18231 12 5
18231 14 1
18232 5 1
18232 19 1
18232 29 5
18233 29 1
18234 24 11
18234 26 1
18234 38 1
18235 34 1
18236 12 1
18237 12 1
18237 24 1
18237 29 1
18237 34 1
18238 20 1
18239 19 1
18240 29 5
18241 12 1
18242 3 1
18243 11 1
18244 2 22
18244 3 51
18244 5 1
18244 34 56
18245 4 1
18245 5 3
18245 38 4
18246 11 1
18246 29 12
18247 24 2
18247 26 3
18247 31 3
18248 8 1
18249 5 2
18249 18 2
18249 23 1
18250 21 1
18251 20 1
18251 24 2
18251 34 1
18252 25 1
18252 26 3
18253 34 1
18254 24 1
18254 25 1
18254 26 4
18254 31 5
18255 7 5
18255 8 6
18256 22 1
18257 24 6
18258 18 1
18259 20 2
18260 2 8
18260 3 24
18260 19 1
18260 22 1
18260 34 26
18261 3 2
18261 11 1
18261 21 16
18261 22 11
18262 26 1
18263 21 3
18263 22 1
18264 29 13
18264 30 1
18265 24 1
18265 29 1
18266 26 1
18267 26 5
18268 2 31
18268 3 48
18268 34 60
18269 31 3
18270 15 1
18271 15 1
18272 4 1
18272 5 7
18272 38 6
18273 24 1
18274 26 9
18275 7 1
18275 22 1
18276 24 5
18276 29 9
18276 30 2
18277 18 1
18278 19 1
18279 29 1
18280 3 1
18281 3 1
18282 15 1
18283 12 8
18283 14 4
18284 7 2
18284 29 11
18284 30 4
18285 34 1
18286 3 1
18286 34 1
18287 14 1
18288 8 1
18289 10 1
18290 15 1
18290 34 1
18291 29 12
18291 30 1
18292 34 1
18293 29 1
18294 9 1
18294 11 1
18295 31 1
18296 19 1
18297 8 1
18298 24 1
18298 26 1
18298 31 1
18299 26 5
18300 1 1
18300 2 23
18300 3 37
18300 19 1
18300 34 38
18301 21 7
18301 22 2
18302 31 1
18303 12 1
18304 3 1
18304 9 1
18304 10 4
18304 11 1
18305 34 1
18306 34 2
18307 24 3
18308 34 1
18309 2 8
18309 3 26
18309 17 1
18309 34 24
18310 21 1
18311 11 1
18311 34 1
18312 15 1
18312 17 1
18312 18 1
18313 29 1
18313 31 11
18313 34 1
18314 19 1
18314 29 3
18315 2 7
18315 3 13
18315 34 22
18316 18 2
18316 19 3
18316 20 3
18317 5 1
18318 31 1
18319 31 3
18320 9 1
18321 24 23
18322 2 1
18322 7 1
18322 18 2
18323 2 1
18324 28 1
18324 34 1
18325 34 1
18326 29 2
18327 7 1
18327 12 1
18327 23 1
18327 34 2
18328 34 1
18329 31 6
18330 15 1
18330 16 1
18330 22 2
18331 2 1
18331 3 2
18332 26 1
18333 28 3
18333 31 6
18334 19 1
18335 15 51
18335 16 26
18335 17 33
18335 18 1
18336 3 1
18336 29 16
18337 4 1
18337 29 1
18338 12 1
18338 15 17
18338 16 5
18338 17 10
18338 28 2
18339 24 1
18340 21 18
18340 22 16
18341 24 2
18341 31 2
18341 34 1
18342 9 1
18342 29 1
18343 5 1
18343 22 1
18344 4 3
18344 5 35
18344 38 31
18345 12 2
18345 14 1
18346 26 1
18347 34 1
18348 21 1
18349 38 1
18350 3 1
18351 4 1
18351 5 1
18351 31 1
18351 38 1
18352 17 1
18353 7 4
18353 8 12
18353 28 1
18353 31 5
18354 22 1
18355 24 1
18356 12 1
18357 29 1
18358 19 1
18359 18 1
18359 19 1
18360 18 10
18360 19 6
18360 20 1
18361 24 1
18362 3 1
18362 15 5
18362 17 2
18363 9 1
18363 29 4
18364 26 1
18365 3 1
18366 31 20
18366 34 1
18367 4 1
18368 29 13
18369 17 1
18370 34 1
18371 28 6
18372 24 1
18373 20 1
18374 22 1
18375 29 1
18376 3 1
18377 15 1
18378 24 1
18379 24 9
18380 21 1
18381 19 1
18381 20 1
18382 21 17
18382 22 19
18383 3 1
18384 24 6
18384 31 1
18385 8 1
18386 26 1
18386 29 4
18387 27 1
18387 28 2
18388 18 1
18389 34 2
18390 3 1
18391 24 1
18391 29 2
18392 3 1
18393 24 1
18394 18 1
18395 12 1
18396 24 1
18397 26 1
18397 29 4
18398 31 9
18399 29 3
18400 31 1
18401 38 1
18402 18 2
18402 19 1
18402 20 4
18403 8 1
18404 38 1
18405 1 2
18405 2 27
18405 3 44
18405 12 1
18405 34 61
18405 38 1
18406 3 1
18406 21 15
18406 22 6
18407 5 12
18407 38 6
18408 9 1
18409 2 1
18410 34 1
18411 2 1
18412 10 1
18413 2 1
18413 3 1
18413 12 8
18413 14 8
18414 10 1
18415 3 1
18415 29 10
18415 30 1
18416 5 1
18416 29 2
18417 10 1
18418 24 1
18419 3 1
18420 34 1
18421 29 5
18422 10 1
18423 34 1
18424 1 2
18424 2 29
18424 3 47
18424 4 1
18424 5 1
18424 34 54
18425 5 1
18426 2 1
18427 31 1
18428 3 1
18428 9 1
18428 24 1
18429 15 2
18429 38 1
18430 12 1
18431 20 1
18432 2 2
18432 3 6
18432 24 1
18432 34 4
18433 23 1
18433 24 2
18434 18 1
18434 20 1
18434 28 2
18435 3 1
18436 26 5
18436 31 1
18437 14 1
18438 3 1
18439 2 1
18439 4 10
18439 5 45
18439 29 1
18439 38 38
18440 2 3
18440 3 3
18440 34 1
18441 19 1
18441 26 1
18442 10 1
18442 15 4
18442 17 3
18442 29 1
18443 24 4
18444 28 5
18445 29 1
18446 21 7
18446 22 7
18446 34 1
18447 1 2
18447 2 12
18447 3 44
18447 34 58
18447 38 1
18448 24 23
18448 34 1
18449 4 1
18450 14 1
18451 12 1
18451 14 1
18452 5 1
18452 26 1
18452 31 1
18452 38 4
18453 12 1
18454 34 1
18455 31 1
18456 5 1
18457 18 47
18457 19 63
18457 20 23
18458 2 1
18458 10 1
18458 18 9
18458 19 21
18458 20 12
18459 19 1
18460 34 1
18461 10 1
18462 8 1
18463 38 3
18464 28 2
18465 18 1
18466 4 8
18466 5 50
18466 38 48
18467 1 1
18467 2 8
18467 3 12
18467 14 1
18467 34 8
18468 29 1
18469 3 1
18469 18 10
18469 19 12
18469 20 4
18470 19 1
18471 24 2
18472 4 3
18472 5 8
18472 38 13
18473 12 3
18473 13 1
18473 14 1
18473 15 1
18473 22 1
18473 38 2
18474 24 14
18475 8 1
18476 4 4
18476 5 17
18476 24 1
18476 38 18
18477 10 1
18478 21 28
18478 22 21
18479 3 1
18480 1 1
18480 2 9
18480 3 12
18480 31 1
18480 34 9
18481 26 1
18482 5 1
18483 10 1
18484 4 1
18484 5 4
18484 38 12
18485 18 5
18485 19 6
18486 19 1
18487 12 1
18488 18 5
18488 19 7
18488 29 1
18489 22 1
18490 2 8
18490 3 16
18490 34 16
18491 15 1
18491 34 2
18492 21 4
18492 22 4
18493 1 3
18493 2 22
18493 3 65
18493 18 1
18493 34 71
18494 3 1
18495 28 2
18496 2 1
18497 16 1
18497 17 1
18497 34 1
18498 18 14
18498 19 17
18498 20 3
18499 18 3
18499 19 4
18499 20 4
18500 2 1
18500 3 3
18500 26 3
18500 31 4
18500 34 6
18501 8 1
18501 34 1
18502 1 1
18503 2 1
18504 29 21
18504 30 2
18505 30 1
18506 26 1
18507 26 6
18507 31 16
18508 5 1
18509 34 2
18510 4 1
18510 5 7
18510 38 4
18511 34 1
18512 29 2
18513 29 1
18514 5 1
18515 24 1
18516 38 1
18517 2 6
18517 3 13
18517 34 16
18518 34 1
18519 2 10
18519 3 16
18519 34 17
18520 5 1
18520 9 3
18520 11 2
18520 21 28
18520 22 22
18521 21 1
18522 18 13
18522 19 10
18522 20 1
18523 7 5
18523 8 8
18524 19 1
18525 5 1
18525 15 1
18525 34 1
18525 38 1
18526 19 1
18526 23 1
18526 24 13
18527 12 1
18528 11 1
18529 21 24
18529 22 13
18530 9 1
18531 24 2
18532 22 1
18533 8 1
18534 29 1
18535 19 1
18536 5 1
18536 8 1
18537 22 1
18538 21 3
18539 34 1
18540 15 1
18541 29 1
18541 34 1
18542 8 1
18543 18 1
18544 8 2
18545 29 1
18546 29 1
18547 2 1
18548 3 1
18548 28 9
18549 2 2
18549 3 5
18549 29 4
18549 34 3
18550 10 7
18550 11 4
18551 2 4
18551 3 3
18551 34 1
18552 38 1
18553 5 1
18553 12 36
18553 14 23
18554 3 2
18554 4 1
18554 21 1
18554 26 1
18554 34 1
18555 7 5
18555 8 7
18556 24 1
18557 18 1
18557 19 3
18557 20 1
18558 4 9
18558 5 37
18558 19 1
18558 24 1
18558 30 1
18558 38 35
18559 38 1
18560 3 1
18560 7 3
18560 8 4
18561 3 1
18561 8 2
18562 3 1
18563 8 3
18564 4 1
18564 5 2
18564 38 1
18565 8 1
18566 5 2
18566 12 1
18566 38 1
18567 4 7
18567 5 12
18567 38 10
18568 4 1
18569 29 2
18571 22 1
18572 21 7
18572 22 6
18572 29 1
18573 5 1
18573 9 1
18573 10 2
18573 24 1
18574 18 1
18574 26 2
18575 26 2
18576 26 1
18577 2 1
18577 8 1
18577 18 1
18578 38 1
18579 20 1
18580 34 1
18581 19 1
18581 24 1
18582 2 1
18582 5 1
18582 7 1
18583 1 1
18583 2 14
18583 3 32
18583 28 1
18583 34 29
18584 3 1
18584 29 3
18584 30 1
18584 31 2
18585 7 11
18585 8 24
18585 24 18
18585 29 1
18586 21 1
18587 1 1
18588 18 1
18588 24 2
18589 3 1
18590 34 1
18591 21 1
18591 34 1
18592 5 1
18593 29 1
18594 10 1
18594 11 3
18594 17 1
18595 29 1
18596 22 1
18596 28 1
18596 34 1
18597 15 6
18597 16 1
18597 17 4
18598 15 1
18599 24 22
18600 3 1
18601 28 10
18601 38 1
18602 29 2
18602 30 1
18603 2 1
18603 18 1
18604 11 1
18605 19 1
18605 24 3
18605 34 1
18606 21 1
18607 29 15
18607 30 1
18608 3 1
18608 4 1
18608 25 1
18609 7 2
18609 19 1
18609 21 4
18609 22 7
18610 15 1
18610 16 1
18610 17 1
18611 2 24
18611 3 43
18611 34 55
18612 34 1
18613 5 1
18613 15 43
18613 16 26
18613 17 31
18614 34 1
18615 3 1
18616 2 4
18616 3 5
18616 34 2
18617 29 2
18617 34 1
18618 24 1
18619 12 1
18619 24 5
18620 2 1
18621 19 1
18621 38 1
18622 21 1
18623 1 1
18623 2 8
18623 3 16
18623 31 9
18623 34 26
18624 31 1
18625 15 8
18625 16 5
18625 17 3
18626 25 3
18626 26 11
18626 29 2
18627 5 1
18627 34 1
18628 24 1
18629 1 1
18629 2 2
18629 3 6
18629 34 3
18630 29 9
18630 30 1
18631 5 1
18632 1 2
18632 2 22
18632 3 49
18632 24 2
18632 29 19
18632 30 3
18632 34 39
18632 38 2
18633 3 1
18634 24 1
18635 3 1
18635 25 2
18635 26 8
18636 34 1
18637 2 9
18637 3 28
18637 14 1
18637 34 32
18638 24 3
18639 2 1
18639 3 1
18639 31 1
18640 34 1
18641 29 1
18642 5 2
18643 18 1
18643 19 1
18643 20 1
18644 24 1
18644 29 1
18645 34 1
18646 2 1
18646 22 1
18646 25 1
18646 26 16
18647 34 1
18648 26 4
18649 29 11
18649 30 1
18650 28 1
18651 28 1
18652 9 1
18653 1 3
18653 2 17
18653 3 61
18653 34 56
18654 34 2
18655 3 1
18656 21 7
18656 22 2
18657 29 1
18658 29 1
18659 29 2
18660 20 1
18661 21 1
18662 38 1
18663 4 1
18663 9 2
18663 10 4
18664 20 1
18665 29 1
18666 2 4
18666 3 13
18666 34 7
18667 7 3
18667 8 5
18667 24 1
18667 34 1
18668 5 2
18669 4 6
18669 5 26
18669 38 18
18670 11 1
18671 21 3
18671 22 1
18672 24 3
18673 12 2
18673 13 1
18673 14 1
18673 21 1
18673 38 1
18674 31 7
18675 16 1
18676 15 3
18676 34 1
18677 31 2
18678 9 1
18679 10 1
18680 11 1
18681 38 1
18682 19 1
18683 21 1
18684 18 7
18684 19 8
18684 20 3
18685 7 10
18685 8 19
18685 21 1
18686 26 1
18686 29 2
18687 10 1
18688 3 1
18688 24 20
18689 2 1
18689 31 12
18689 33 2
18690 28 1
18691 3 1
18692 3 1
18692 5 1
18692 16 2
18692 23 1
18693 8 1
18694 24 5
18695 9 11
18695 10 26
18695 11 15
18695 22 1
18696 12 7
18696 14 2
18697 7 9
18697 8 13
18698 10 1
18699 8 1
18699 31 9
18699 38 1
18700 3 1
18701 24 1
18702 4 1
18702 34 1
18702 38 1
18703 17 1
18703 18 1
18704 2 1
18704 3 2
18704 26 9
18704 31 6
18704 34 3
18705 3 1
18706 11 1
18707 34 1
18708 15 9
18708 16 3
18708 17 4
18709 29 1
18710 12 15
18710 13 1
18710 14 14
18711 2 1
18711 29 1
18712 5 1
18712 8 1
18712 9 29
18712 10 64
18712 11 30
18713 29 1
18714 2 2
18714 3 1
18714 34 2
18715 29 10
18716 14 1
18717 24 1
18718 29 1
18719 24 9
18719 34 1
18720 11 1
18721 21 1
18721 31 1
18722 22 1
18723 1 1
18723 2 21
18723 3 34
18723 34 45
18724 38 1
18725 5 11
18725 19 1
18725 21 1
18725 38 9
18726 18 1
18726 20 2
18727 15 2
18727 17 1
18727 28 1
18727 31 1
18728 2 5
18728 3 9
18728 34 8
18729 26 1
18729 31 8
18730 22 1
18731 21 1
18731 26 1
18732 3 1
18732 31 6
18733 18 27
18733 19 29
18733 20 11
18734 21 1
18735 1 1
18736 38 1
18737 28 2
18737 31 1
18738 3 1
18739 2 1
18739 27 1
18739 28 5
18740 2 3
18740 3 4
18740 24 11
18740 26 2
18740 34 3
18741 24 1
18742 38 1
18743 38 1
18744 5 1
18745 18 9
18745 19 10
18745 20 2
18746 29 5
18747 12 1
18748 24 1
18749 18 6
18749 19 2
18750 24 15
18750 34 1
18751 19 1
18752 10 1
18752 29 12
18753 20 1
18754 2 2
18754 3 5
18754 25 1
18754 26 2
18754 31 2
18754 34 1
18755 21 8
18755 22 10
18756 28 4
18757 4 4
18757 5 12
18757 20 1
18757 38 18
18758 3 1
18758 8 1
18758 24 2
18758 34 1
18759 34 1
18760 3 3
18760 34 2
18761 10 11
18761 11 1
18761 24 1
18761 29 3
18762 24 6
18763 15 32
18763 16 20
18763 17 15
18764 22 1
18765 15 1
18765 17 1
18766 26 1
18767 21 3
18767 22 2
18768 34 1
18769 26 3
18770 31 3
18771 2 3
18771 3 4
18771 34 4
18772 38 1
18773 21 1
18774 26 1
18775 24 2
18776 21 64
18776 22 38
18776 24 8
18777 1 1
18777 3 1
18778 29 4
18778 30 1
18778 31 1
18779 23 2
18779 24 26
18779 38 1
18780 24 1
18781 34 1
18782 28 2
18783 2 2
18783 3 6
18783 15 1
18783 34 11
18784 15 2
18785 3 1
18785 15 4
18785 16 3
18785 17 5
18785 21 26
18785 22 22
18786 4 3
18786 5 13
18786 38 9
18787 38 1
18788 5 3
18788 19 1
18788 38 1
18789 9 3
18789 10 4
18789 11 4
18790 10 1
18791 2 7
18791 3 20
18791 34 16
18792 2 4
18792 3 9
18792 12 1
18792 24 5
18792 34 8
18793 21 1
18794 3 1
18794 5 1
18794 34 1
18795 2 30
18795 3 25
18795 34 36
18796 5 1
18797 19 1
18797 29 1
18798 29 1
18799 19 1
18800 3 1
18801 2 1
18801 34 5
18802 34 1
18803 16 3
18804 8 1
18805 12 29
18805 14 13
18806 22 1
18806 26 4
18806 28 2
18807 3 1
18808 3 1
18808 38 1
18809 20 1
18810 24 6
18810 28 1
18811 38 1
18812 29 7
18813 18 2
18813 19 2
18814 5 1
18815 19 1
18815 21 2
18815 22 2
18815 38 1
18816 7 1
18816 8 8
18817 17 1
18817 29 33
18817 30 3
18817 34 1
18818 9 1
18819 11 1
18819 38 1
18820 3 1
18821 38 1
18822 24 1
18823 24 1
18824 3 1
18825 3 1
18826 34 1
18827 18 2
18827 19 1
18827 20 1
18828 24 7
18828 29 1
18829 24 1
18830 31 1
18831 24 4
18832 28 4
18833 19 1
18834 19 1
18834 29 1
18835 11 1
18836 18 1
18836 34 1
18837 24 9
18838 8 1
18839 26 1
18840 10 1
18840 24 1
18840 31 1
18841 2 5
18841 3 12
18841 34 12
18842 12 13
18842 13 1
18842 14 4
18843 19 1
18844 18 22
18844 19 33
18844 20 13
18844 30 1
18845 16 1
18846 18 1
18847 3 1
18847 29 1
18848 26 2
18849 5 3
18849 38 1
18850 30 1
18851 29 4
18852 38 1
18853 5 1
18854 21 1
18854 24 7
18855 29 1
18856 4 9
18856 5 56
18856 38 45
18857 2 1
18858 23 1
18858 24 2
18859 1 2
18859 2 25
18859 3 55
18859 34 55
18860 3 1
18861 38 1
18862 3 1
18863 24 15
18864 26 1
18864 34 2
18865 20 1
18866 1 2
18866 2 11
18866 3 10
18866 29 1
18866 31 1
18866 34 16
18867 9 7
18867 10 12
18867 11 7
18867 19 1
18867 34 2
18868 29 1
18869 12 1
18869 21 1
18869 22 1
18870 3 1
18870 5 1
18870 21 27
18870 22 28
18870 34 2
18871 5 1
18872 29 10
18873 21 1
18874 5 1
18874 9 12
18874 10 19
18874 11 20
18875 4 2
18875 5 18
18875 38 19
18876 31 1
18877 18 1
18878 19 1
18879 1 1
18879 2 14
18879 3 60
18879 34 76
18880 22 1
18881 28 3
18881 38 1
18882 8 1
18883 19 1
18884 27 1
18884 28 4
18884 29 3
18884 30 2
18885 7 1
18885 8 1
18885 34 1
18886 5 1
18887 5 2
18888 5 1
18889 2 28
18889 3 53
18889 26 16
18889 31 2
18889 34 62
18890 11 1
18891 1 1
18891 2 18
18891 3 27
18891 34 38
18892 24 11
18893 24 1
18894 29 2
18895 1 2
18895 2 15
18895 3 21
18895 34 30
18896 34 1
18897 12 8
18897 14 4
18897 21 14
18897 22 4
18898 2 5
18898 3 12
18898 34 7
18899 30 1
18900 15 1
18901 8 1
18901 19 1
18901 34 55
18902 34 1
18902 38 2
18903 14 1
18904 34 1
18904 38 1
18905 18 1
18906 28 4
18907 3 1
18908 26 4
18909 4 1
18909 5 10
18909 12 1
18909 38 8
18910 31 6
18911 2 1
18911 3 8
18911 34 13
18912 2 19
18912 3 33
18912 12 1
18912 19 1
18912 24 1
18912 34 26
18913 3 1
18913 38 1
18914 3 1
18915 3 1
18916 18 2
18916 19 4
18916 20 3
18917 9 1
18918 12 2
18918 14 7
18919 29 22
18919 30 2
18920 24 18
18921 29 18
18921 30 1
18922 31 1
18923 9 1
18924 38 1
18925 12 54
18925 13 1
18925 14 28
18926 3 1
18926 23 1
18926 24 6
18926 28 4
18927 2 1
18928 28 4
18929 38 1
18930 12 1
18931 31 1
18932 24 1
18932 29 11
18933 20 1
18934 21 4
18934 22 2
18935 22 1
18936 10 2
18936 11 2
18936 38 1
18937 12 4
18937 14 6
18938 29 1
18939 29 4
18940 3 1
18941 24 1
18941 31 4
18942 12 1
18942 22 1
18942 34 1
18942 38 1
18943 8 1
18944 28 1
18945 31 1
18945 38 2
18946 26 3
18946 29 1
18947 34 1
18948 29 7
18948 30 2
18949 12 1
18949 14 1
18950 26 1
18951 22 1
18952 1 2
18952 2 37
18952 3 57
18952 34 86
18953 2 4
18953 3 5
18953 34 14
18954 14 1
18955 15 1
18956 20 1
18957 24 1
18958 11 1
18958 24 1
18959 34 1
18960 22 1
18961 21 1
18961 22 1
18962 18 6
18962 19 4
18962 20 6
18963 34 1
18964 1 1
18964 2 8
18964 3 11
18964 34 16
18965 2 1
18966 3 1
18966 29 3
18967 26 1
18968 9 1
18968 38 1
18969 18 23
18969 19 13
18969 20 1
18970 31 13
18971 3 1
18971 29 13
18971 30 1
18972 17 1
18972 18 1
18972 19 3
18973 29 3
18974 31 1
18975 18 1
18976 38 1
18977 2 1
18977 3 1
18977 10 1
18977 29 1
18977 34 1
18978 2 1
18979 29 2
18980 5 1
18981 24 17
18981 28 1
18982 8 1
18983 12 27
18983 13 2
18983 14 9
18983 38 1
18984 12 28
18984 14 18
18985 15 3
18985 17 3
18986 18 7
18986 19 6
18986 20 3
18987 12 10
18987 14 4
18987 34 1
18988 5 1
18988 31 1
18989 4 2
18989 5 5
18989 38 1
18990 3 1
18990 5 1
18990 29 8
18991 8 1
18992 29 7
18993 22 1
18993 24 1
18993 29 1
18993 38 1
18994 4 1
18995 21 1
18996 29 1
18996 34 1
18997 5 1
18998 5 1
18999 8 2
18999 29 1
19000 24 1
19000 29 1
19001 3 1
19001 18 2
19001 19 1
19002 5 1
19002 21 42
19002 22 23
19002 34 1
19003 9 1
19003 21 1
19003 31 29
19003 38 1
19004 24 1
19005 2 1
19006 24 1
19006 38 1
19007 15 1
19008 24 2
19009 2 1
19010 3 1
19011 31 1
19012 23 1
19012 24 12
19013 5 1
19014 12 16
19014 13 1
19014 14 5
19015 21 1
19016 11 1
19016 34 1
19017 11 1
19018 34 1
19019 10 1
19020 24 3
19021 12 22
19021 14 9
19022 3 1
19022 9 9
19022 10 17
19022 11 14
19023 2 6
19023 3 12
19023 20 1
19023 34 23
19024 24 1
19025 2 1
19025 3 2
19025 5 1
19025 24 1
19025 29 2
19025 34 1
19026 29 1
19027 3 1
19027 18 1
19027 38 1
19028 38 1
19029 12 2
19029 24 1
19030 24 1
19031 3 1
19032 8 1
19033 21 13
19033 22 12
19034 18 1
19034 19 6
19035 4 4
19035 5 29
19035 21 17
19035 22 12
19035 38 27
19036 11 1
19036 15 2
19036 16 2
19036 17 3
19037 3 1
19037 21 2
19037 22 1
19038 5 1
19038 8 2
19039 34 1
19040 5 1
19041 21 1
19042 3 2
19042 15 1
19043 10 1
19044 9 1
19044 31 1
19044 38 1
19045 3 1
19046 21 1
19047 1 2
19047 2 16
19047 3 21
19047 10 1
19047 34 27
19048 19 1
19048 34 1
19049 29 17
19049 30 3
19050 38 2
19051 11 1
19051 26 1
19051 31 3
19052 19 1
19053 31 1
19054 12 4
19054 14 1
19054 34 1
19055 29 1
19056 18 1
19057 21 1
19058 31 1
19059 7 1
19060 10 1
19060 18 1
19060 24 1
19061 5 1
19062 21 1
19063 9 2
19063 10 6
19063 11 3
19064 3 1
19064 14 2
19064 19 1
19064 25 1
19064 26 1
19065 2 2
19065 3 5
19065 21 1
19065 26 1
19065 34 13
19066 2 3
19066 3 4
19066 34 1
19067 23 2
19067 24 18
19068 5 1
19069 2 1
19069 4 1
19070 31 1
19071 3 1
19072 21 8
19072 22 8
19073 24 5
19074 24 7
19074 25 1
19074 26 5
19075 28 1
19076 31 1
19077 38 1
19078 15 1
19079 2 1
19080 3 1
19081 38 1
19082 24 2
19082 29 20
19082 30 1
19082 31 1
19083 3 1
19083 12 1
19083 24 1
19083 38 1
19084 12 1
19085 28 1
19085 38 1
19086 26 2
19087 24 1
19088 4 1
19088 20 1
19088 26 1
19088 29 17
19088 30 3
19089 8 1
19089 15 4
19089 16 3
19089 17 3
19089 21 1
19090 12 7
19090 13 1
19090 14 2
19090 18 1
19090 19 1
19091 3 1
19091 4 6
19091 5 26
19091 38 32
19092 15 1
19093 18 1
19094 26 2
19094 29 9
19094 30 2
19095 3 1
19096 23 2
19096 24 24
19096 27 1
19096 28 1
19097 5 1
19097 34 1
19098 5 1
19099 2 6
19099 3 35
19099 4 1
19099 34 32
19100 38 1
19101 28 3
19101 29 1
19102 3 2
19102 7 2
19103 34 1
19104 28 1
19105 19 1
19106 31 2
19107 5 1
19108 29 2
19108 30 1
19109 3 1
19109 12 6
19109 14 1
19109 18 1
19110 2 1
19111 2 4
19111 3 3
19111 24 1
19111 34 12
19112 4 1
19113 25 1
19114 2 1
19115 11 1
19116 29 1
19117 18 1
19117 19 1
19117 24 1
19118 8 1
19118 38 1
19119 4 5
19119 5 12
19119 38 9
19120 38 2
19121 12 1
19121 34 1
19122 9 1
19122 21 24
19122 22 19
19123 20 1
19124 3 1
19125 4 1
19125 5 4
19125 34 1
19125 38 2
19126 12 1
19126 14 1
19127 2 1
19128 10 1
19129 19 2
19129 21 3
19129 22 5
19130 19 1
19131 2 1
19131 9 1
19131 10 8
19131 11 6
19132 19 1
19133 22 1
19134 3 1
19135 9 18
19135 10 38
19135 11 32
19136 5 2
19136 22 1
19136 38 1
19137 5 2
19137 7 1
19137 31 2
19138 16 1
19138 38 1
19139 31 13
19140 4 1
19140 5 1
19140 38 1
19141 21 9
19141 22 1
19142 4 1
19142 5 4
19142 22 2
19142 38 3
19143 3 1
19143 19 1
19144 18 1
19145 26 1
19146 26 1
19147 28 1
19148 8 1
19149 18 33
19149 19 47
19149 20 15
19149 34 1
19150 19 1
19151 28 3
19152 12 1
19152 31 1
19153 9 5
19153 10 6
19153 11 2
19153 24 1
19154 12 6
19154 14 4
19155 1 2
19155 2 28
19155 3 34
19155 34 45
19156 12 23
19156 14 10
19157 24 17
19158 11 1
19159 20 1
19160 12 1
19160 21 1
19160 25 1
19161 10 1
19161 11 1
19161 15 3
19161 17 1
19162 3 1
19163 4 1
19163 20 1
19163 21 1
19163 22 1
19164 26 1
19165 3 1
19166 31 1
19167 18 1
19167 21 3
19167 34 1
19168 22 1
19169 7 1
19170 15 2
19170 16 2
19170 18 7
19170 19 5
19170 20 2
19171 12 5
19171 14 2
19172 10 1
19173 34 1
19174 34 1
19175 21 1
19175 29 2
19175 38 1
19176 2 1
19177 29 23
19177 30 3
19178 34 2
19179 3 1
19179 17 1
19179 31 1
19180 29 18
19180 30 1
19181 24 1
19182 21 1
19183 29 1
19184 18 6
19184 19 1
19185 29 2
19186 9 2
19186 11 2
19187 34 1
19188 24 31
19189 2 1
19190 29 1
19191 5 23
19191 17 1
19191 34 1
19191 38 13
19192 5 2
19193 4 1
19194 5 1
19194 12 2
19194 13 1
19194 14 3
19194 22 1
19195 2 14
19195 3 33
19195 34 25
19196 38 1
19197 26 1
19198 14 1
19198 25 1
19198 26 10
19198 29 6
19199 21 1
19199 22 1
19200 15 5
19200 16 1
19200 17 4
19201 28 4
19202 34 1
19203 24 11
19204 5 3
19204 38 7
19205 25 1
19206 2 5
19206 3 9
19206 7 15
19206 8 33
19206 34 11
19206 38 1
19207 22 1
19208 12 2
19208 14 2
19209 9 4
19209 10 9
19209 11 9
19210 12 1
19211 24 9
19211 34 1
19212 15 1
19212 24 15
19213 21 1
19214 29 2
19215 18 1
19215 19 1
19216 10 1
19216 19 1
19216 20 2
19217 29 1
19217 30 1
19218 1 1
19218 2 16
19218 3 20
19218 34 37
19219 5 1
19219 9 5
19219 10 17
19219 11 10
19219 21 1
19220 34 1
19221 34 1
19222 21 6
19222 22 6
19223 10 1
19224 4 1
19224 5 3
19224 38 4
19225 7 1
19226 2 2
19226 3 5
19226 34 11
19227 12 1
19228 21 1
19229 8 1
19230 29 4
19231 28 4
19231 29 1
19232 10 1
19233 5 1
19233 15 2
19233 21 1
19234 18 1
19235 16 1
19235 19 1
19235 34 2
19235 38 1
19236 3 1
19237 29 6
19238 24 13
19239 5 1
19240 22 1
19240 30 1
19241 19 1
19242 7 2
19242 8 3
19243 22 1
19244 22 1
19245 34 1
19246 18 1
19247 3 1
19247 34 1
19248 29 1
19248 30 1
19249 18 1
19250 29 3
19251 24 4
19252 11 1
19253 34 1
19254 18 1
19254 21 1
19254 31 25
19255 3 1
19255 21 1
19255 26 1
19256 24 1
19257 34 1
19258 5 2
19258 34 1
19258 38 2
19259 24 1
19260 4 1
19260 31 13
19261 2 1
19261 3 6
19261 14 1
19261 34 4
19262 24 1
19263 26 1
19264 7 1
19264 11 11
19264 26 1
19265 24 3
19266 29 6
19267 31 1
19268 12 1
19269 18 1
19270 19 1
19271 21 6
19271 22 4
19272 21 4
19272 22 6
19273 11 1
19274 3 1
19275 24 1
19276 9 3
19276 11 6
19276 19 1
19277 24 1
19278 26 1
19278 29 2
19278 34 2
19279 5 2
19279 38 2
19280 24 5
19281 8 1
19281 18 3
19281 19 2
19281 20 1
19281 26 1
19282 3 1
19283 29 14
19283 30 1
19284 19 1
19285 31 4
19286 2 1
19286 3 7
19286 34 3
19287 24 5
19288 25 2
19288 26 6
19289 2 1
19290 26 1
19290 28 1
19290 29 1
19290 31 5
19291 4 3
19291 5 4
19291 38 1
19292 1 2
19292 2 17
19292 3 58
19292 34 59
19293 26 3
19294 18 14
19294 19 21
19294 20 8
19295 29 5
19296 9 1
19297 2 3
19297 3 8
19297 18 1
19297 34 15
19298 4 2
19298 5 5
19298 15 3
19298 16 3
19298 17 3
19298 38 2
19299 21 1
19299 31 8
19300 3 1
19301 8 1
19302 15 1
19303 2 1
19304 29 15
19304 30 1
19305 2 1
19305 3 1
19306 29 1
19306 34 1
19307 7 1
19307 8 7
19308 4 1
19309 2 1
19309 5 1
19309 23 2
19309 24 45
19309 31 3
19310 10 1
19311 14 1
19312 34 1
19313 16 1
19313 21 1
19314 26 1
19314 34 1
19315 38 1
19316 29 1
19317 2 1
19317 3 1
19317 24 15
19318 3 1
19318 28 6
19319 4 2
19319 5 6
19319 11 5
19319 38 6
19320 3 1
19321 18 1
19322 3 1
19323 8 1
19323 34 1
19324 2 1
19325 12 1
19326 38 1
19327 5 1
19328 12 32
19328 13 1
19328 14 21
19329 10 1
19329 28 3
19330 34 1
19331 1 1
19331 2 3
19331 3 5
19331 34 7
19332 2 1
19332 19 2
19332 29 2
19333 26 3
19333 31 1
19334 29 2
19334 31 1
19335 16 1
19335 26 1
19336 21 1
19337 24 1
19338 9 5
19338 10 15
19338 11 9
19338 21 1
19339 16 1
19340 31 3
19341 29 1
19342 1 1
19342 2 19
19342 3 49
19342 34 63
19343 2 1
19343 24 1
19343 31 1
19344 14 1
19345 10 1
19346 21 2
19346 22 1
19347 3 2
19347 21 20
19347 22 16
19348 2 30
19348 3 39
19348 34 45
19349 34 1
19350 19 1
19351 3 1
19351 12 8
19351 13 1
19351 14 4
19352 21 3
19352 22 4
19353 14 1
19354 34 1
19355 3 1
19355 8 1
19355 34 1
19356 12 1
19356 15 1
19356 30 1
19357 12 2
19357 14 6
19358 5 1
19358 31 7
19359 34 1
19360 5 1
19362 5 1
19362 21 1
19363 24 1
19364 2 1
19365 19 41
19366 3 1
19366 26 5
19367 7 1
19367 17 1
19367 38 1
19368 29 1
19369 38 1
19370 34 1
19371 2 3
19371 3 4
19371 34 3
19372 4 1
19373 20 1
19374 4 1
19375 2 7
19375 3 13
19375 34 9
19376 2 8
19376 3 20
19376 24 2
19376 34 25
19377 14 1
19378 18 1
19378 19 1
19378 24 1
19379 21 1
19380 3 1
19381 29 15
19381 30 1
19382 3 2
19383 29 1
19383 34 1
19384 4 2
19384 5 15
19384 10 1
19384 38 13
19385 16 1
19386 5 1
19387 12 1
19388 19 1
19389 34 1
19390 19 1
19391 4 1
19391 5 7
19391 38 3
19392 5 2
19392 26 1
19392 38 3
19393 18 1
19394 4 2
19394 5 21
19394 9 3
19394 10 5
19394 11 1
19394 34 1
19394 38 37
19395 11 1
19396 12 1
19396 14 1
19397 22 1
19397 38 1
19398 4 1
19398 5 2
19398 38 8
19399 21 2
19399 22 5
19400 12 27
19400 14 18
19400 34 1
19401 24 1
19401 34 1
19402 7 1
19403 24 2
19404 9 1
19404 10 1
19404 11 3
19405 29 4
19406 3 2
19406 5 1
19406 26 1
19406 34 1
19407 3 1
19408 21 40
19408 22 29
19409 29 2
19410 29 4
19411 12 2
19411 14 2
19412 3 1
19412 18 1
19412 19 1
19413 31 1
19414 9 1
19414 28 4
19415 15 1
19416 14 1
19417 24 1
19418 14 1
19419 18 1
19419 28 1
19420 29 18
19420 30 2
19421 18 1
19422 38 1
19423 5 1
19424 18 1
19425 19 1
19426 26 11
19427 34 2
19428 2 6
19428 3 2
19428 18 16
19428 19 10
19428 20 6
19428 22 1
19428 34 4
19429 11 1
19429 19 1
19429 20 2
19430 25 1
19431 18 1
19432 5 1
19433 21 1
19434 3 1
19434 19 1
19435 20 1
19435 21 20
19435 22 15
19436 5 1
19436 38 1
19437 1 1
19437 2 20
19437 3 32
19437 34 29
19438 34 1
19439 19 1
19440 38 1
19441 24 1
19442 31 6
19443 19 1
19443 31 5
19444 3 1
19445 29 1
19446 18 1
19447 3 1
19448 21 18
19448 22 7
19449 3 1
19450 24 1
19451 34 1
19452 14 1
19452 38 1
19453 5 1
19453 38 1
19454 31 1
19455 21 32
19455 22 12
19455 24 8
19455 28 1
19456 5 1
19457 24 2
19457 38 1
19458 29 3
19459 9 8
19459 10 38
19459 11 25
19460 5 1
19460 21 2
19461 12 1
19462 17 1
19463 10 1
19464 11 1
19465 15 18
19465 16 7
19465 17 21
19466 18 1
19467 11 1
19468 20 1
19468 24 1
19468 29 3
19469 38 1
19470 24 20
19471 10 1
19471 29 7
19472 14 1
19473 7 16
19473 8 36
19474 15 1
19474 16 2
19475 24 6
19476 38 1
19477 21 6
19477 22 9
19478 4 2
19478 5 10
19478 10 1
19478 15 1
19478 38 17
19479 24 1
19480 2 1
19480 26 2
19480 29 13
19481 5 1
19482 20 1
19483 19 1
19484 29 9
19484 30 2
19484 34 1
19484 38 1
19485 31 1
19486 16 1
19486 17 1
19486 29 6
19486 30 1
19487 12 1
19487 38 1
19488 11 1
19489 19 1
19490 4 1
19490 5 13
19490 18 1
19490 22 1
19490 38 13
19491 34 1
19492 3 1
19493 29 38
19493 30 2
19494 12 1
19495 5 1
19496 3 1
19496 14 1
19496 21 1
19496 31 1
19497 2 2
19497 3 4
19497 9 39
19497 10 44
19497 11 20
19497 18 1
19497 28 1
19497 34 5
19498 4 1
19498 22 1
19498 34 1
19499 7 1
19500 38 2
19501 26 12
19501 29 4
19502 11 1
19503 12 1
19504 38 1
19505 29 2
19506 24 1
19507 3 1
19508 17 1
19509 9 6
19509 10 21
19509 11 14
19509 18 1
19510 2 28
19510 3 41
19510 34 44
19511 1 1
19512 18 1
19512 19 1
19512 38 1
19513 18 23
19513 19 28
19513 20 2
19514 5 1
19515 2 1
19515 5 1
19516 24 1
19516 28 5
19517 5 1
19517 18 4
19517 19 2
19517 20 2
19517 34 1
19518 7 15
19518 8 20
19518 21 1
19519 2 1
19519 11 1
19520 16 1
19521 31 1
19522 34 1
19523 12 6
19523 14 2
19524 28 4
19525 10 1
19526 12 16
19526 13 1
19526 14 11
19527 24 15
19528 3 1
19529 28 1
19530 24 1
19531 21 1
19532 17 1
19533 19 1
19534 34 1
19535 5 1
19535 24 1
19535 34 1
19536 10 2
19537 10 1
19538 10 2
19538 11 1
19538 12 6
19538 13 1
19538 14 2
19538 21 1
19539 4 1
19539 5 5
19539 38 3
19540 11 1
19540 29 8
19540 30 2
19540 34 1
19540 38 1
19541 34 1
19542 5 1
19542 7 4
19542 8 9
19542 21 1
19543 10 1
19543 24 1
19543 25 1
19543 26 1
19543 31 5
19544 9 3
19544 10 11
19544 11 4
19544 15 11
19544 16 12
19544 17 10
19544 30 1
19544 34 1
19545 12 3
19545 14 1
19546 1 1
19546 2 29
19546 3 61
19546 18 1
19546 20 1
19546 34 61
19547 3 1
19548 1 5
19548 2 23
19548 3 53
19548 34 69
19549 34 1
19550 34 1
19551 12 1
19552 3 7
19552 34 3
19553 18 1
19554 10 1
19555 18 1
19556 10 1
19557 15 18
19557 16 10
19557 17 19
19557 31 12
19558 24 1
19559 4 8
19559 5 43
19559 38 58
19560 10 1
19561 10 1
19562 2 1
19563 29 1
19564 8 1
19564 24 3
19564 26 1
19565 21 1
19566 24 1
19566 29 16
19566 30 4
19567 1 4
19567 2 23
19567 3 41
19567 34 46
19568 22 1
19569 4 3
19569 5 4
19569 26 1
19569 38 8
19570 5 1
19570 24 7
19571 16 1
19571 34 1
19571 38 1
19572 24 1
19573 11 1
19574 18 6
19574 19 9
19574 20 1
19574 34 1
19575 5 1
19575 19 1
19575 22 1
19576 19 1
19577 3 1
19577 9 4
19577 10 3
19577 11 6
19577 21 8
19577 22 2
19577 24 1
19578 24 1
19579 29 6
19580 12 1
19581 1 1
19581 3 1
19582 14 1
19583 22 1
19584 5 1
19584 29 1
19585 1 1
19585 2 22
19585 3 31
19585 34 35
19586 34 1
19587 3 1
19588 2 1
19589 3 1
19589 11 1
19589 22 1
19589 29 3
19589 34 1
19590 18 4
19590 19 7
19590 20 3
19590 21 6
19590 22 2
19591 3 1
19592 24 17
19592 26 9
19592 29 10
19593 11 1
19594 26 4
19594 34 1
19595 2 1
19596 9 1
19596 10 2
19596 11 1
19597 21 1
19598 34 1
19599 2 1
19599 5 1
19600 31 1
19601 16 1
19602 2 1
19603 3 1
19604 12 7
19604 14 1
19605 12 1
19606 3 1
19607 34 1
19608 24 1
19608 31 4
19608 34 1
19609 5 6
19609 38 9
19610 10 1
19611 16 1
19612 12 1
19613 38 1
19614 17 1
19615 14 1
19616 19 1
19617 24 4
19618 31 1
19619 10 1
19619 12 4
19619 13 1
19619 14 1
19619 29 1
19620 31 3
19620 38 1
19621 11 1
19622 10 1
19623 8 1
19623 21 8
19623 22 11
19624 29 1
19625 2 1
19626 15 2
19626 16 3
19626 17 3
19626 18 1
19627 5 1
19627 26 2
19628 29 8
19628 30 2
19629 28 5
19630 23 1
19630 24 1
19631 15 5
19631 16 2
19631 17 5
19632 28 4
19633 2 1
19633 29 22
19633 30 3
19634 5 1
19634 14 1
19635 38 1
19636 29 3
19637 28 1
19638 31 16
19639 3 1
19640 31 8
19641 28 5
19642 2 3
19642 3 3
19642 34 2
19643 10 1
19643 18 1
19643 19 3
19644 34 1
19645 2 4
19645 3 4
19645 30 1
19645 34 4
19646 7 1
19647 12 1
19648 14 1
19648 22 1
19649 31 1
19649 38 1
19650 24 7
19651 29 12
19652 24 10
19653 31 6
19654 15 5
19654 16 2
19654 17 2
19655 9 1
19656 5 1
19657 31 6
19658 10 1
19658 26 4
19659 20 1
19660 30 1
19661 29 11
19661 30 3
19662 2 1
19662 24 7
19662 38 1
19663 31 1
19663 34 1
19664 14 1
19665 1 1
19665 2 1
19665 3 2
19665 24 1
19665 34 4
19665 38 1
19666 18 1
19667 3 1
19667 22 1
19667 24 16
19668 2 9
19668 3 38
19668 34 29
19669 18 7
19669 19 2
19670 5 1
19670 12 1
19671 11 1
19672 34 1
19673 12 2
19674 31 1
19675 7 5
19675 8 9
19676 3 1
19677 2 1
19678 3 1
19679 4 1
19680 19 1
19681 2 2
19681 3 2
19681 26 9
19681 34 7
19682 34 1
19683 1 1
19684 11 1
19685 2 1
19685 9 2
19685 10 17
19685 11 7
19686 18 1
19687 18 4
19687 19 2
19687 29 1
19688 29 1
19688 31 5
19689 2 3
19689 3 2
19689 4 1
19689 7 1
19689 8 1
19689 10 1
19689 18 1
19689 26 2
19689 29 1
19689 31 2
19689 34 1
19689 38 3
19690 18 1
19691 3 1
19691 29 2
19692 5 1
19693 24 2
19694 3 1
19695 18 3
19696 18 7
19696 19 6
19696 20 5
19697 18 1
19698 4 2
19698 5 25
19698 38 27
19699 28 2
19700 34 1
19701 9 1
19701 21 1
19702 10 1
19703 31 1
19704 3 1
19704 19 1
19704 28 2
19705 17 1
19705 28 4
19706 21 1
19707 38 6
19708 31 1
19708 38 1
19709 24 1
19709 34 1
19710 24 1
19711 8 1
19711 31 6
19712 9 1
19713 17 1
19713 38 1
19714 18 1
19715 4 2
19715 5 16
19715 38 17
19716 28 6
19717 19 2
19717 20 2
19718 1 1
19718 2 23
19718 3 66
19718 24 1
19718 34 77
19719 18 1
19720 19 1
19721 18 2
19721 34 1
19722 34 1
19723 2 1
19723 29 1
19724 31 1
19724 34 1
19725 16 1
19726 18 1
19726 19 2
19727 34 1
19728 19 1
19729 11 1
19730 11 1
19731 34 1
19732 18 3
19732 19 5
19732 20 1
19732 21 1
19732 34 1
19733 21 3
19733 22 4
19734 38 1
19735 7 1
19736 9 1
19736 10 3
19736 22 1
19736 24 1
19736 29 1
19737 4 4
19737 5 11
19737 12 13
19737 13 1
19737 14 14
19737 34 1
19737 38 8
19738 19 1
19739 34 1
19740 31 1
19741 28 1
19742 22 1
19743 24 1
19744 34 1
19745 2 1
19746 29 10
19747 24 2
19747 31 1
19748 2 11
19748 3 19
19748 18 1
19748 29 1
19748 34 21
19749 29 1
19750 34 1
19751 10 1
19751 29 2
19752 10 1
19753 22 1
19754 18 2
19754 22 1
19755 34 1
19756 20 1
19757 2 1
19757 3 2
19757 4 3
19757 5 11
19757 29 3
19757 34 2
19757 38 11
19758 10 1
19758 11 2
19758 24 10
19759 12 14
19759 14 5
19760 29 1
19761 15 1
19761 21 1
19761 38 1
19762 2 1
19763 28 2
19764 24 1
19765 24 1
19765 38 1
19766 19 1
19767 34 1
19768 10 7
19768 11 6
19768 34 1
19769 29 7
19770 28 1
19771 4 4
19771 5 9
19771 38 7
19772 7 1
19773 2 1
19773 34 1
19774 12 2
19775 29 1
19776 38 1
19777 24 1
19778 9 4
19778 10 6
19778 11 8
19778 19 1
19779 21 2
19779 22 1
19780 10 1
19781 9 3
19781 10 1
19781 11 1
19781 19 1
19782 34 1
19783 34 4
19784 22 1
19785 18 15
19785 19 19
19785 20 2
19786 4 2
19786 5 6
19786 18 1
19786 38 7
19787 12 4
19787 14 1
19788 28 1
19789 15 25
19789 16 26
19789 17 27
19789 21 30
19789 22 16
19790 24 7
19791 21 1
19792 1 4
19792 2 33
19792 3 48
19792 34 66
19792 38 1
19793 19 1
19794 18 5
19794 19 3
19794 20 2
19795 20 1
19796 28 3
19797 8 1
19798 3 1
19799 19 1
19799 31 1
19800 12 6
19800 14 2
19801 19 1
19802 12 1
19803 26 5
19804 4 4
19804 5 9
19804 38 14
19805 2 1
19805 29 1
19805 34 1
19806 29 31
19806 30 2
19807 2 11
19807 3 10
19807 12 1
19807 34 22
19808 2 11
19808 3 48
19808 19 1
19808 34 53
19808 38 1
19809 21 6
19809 22 4
19810 16 1
19810 17 2
19811 15 3
19811 16 7
19811 17 1
19812 5 1
19813 5 1
19813 9 1
19813 10 1
19813 21 11
19813 22 3
19814 14 1
19815 34 1
19816 9 1
19817 14 2
19818 22 1
19819 3 1
19820 24 1
19820 29 12
19820 30 1
19821 8 1
19821 34 1
19822 19 1
19823 17 1
19824 24 1
19824 28 1
19825 7 1
19826 18 31
19826 19 27
19826 20 15
19827 4 11
19827 5 39
19827 38 29
19828 38 1
19829 5 3
19829 38 3
19830 24 3
19831 29 1
19832 20 1
19833 28 4
19834 29 1
19834 30 1
19835 31 1
19836 21 16
19836 22 19
19836 38 1
19837 26 3
19838 29 1
19839 11 1
19839 29 4
19839 30 2
19840 31 5
19841 11 1
19841 12 1
19842 31 4
19843 5 1
19844 28 1
19845 34 1
19846 28 1
19847 18 24
19847 19 31
19847 20 7
19848 2 1
19849 11 1
19850 31 2
19851 10 1
19852 29 1
19853 34 1
19854 29 1
19855 34 1
19856 3 1
19856 34 5
19857 34 1
19858 2 4
19858 3 9
19858 31 9
19858 34 6
19859 34 1
19860 24 1
19861 7 3
19861 8 3
19861 26 1
19862 2 1
19863 15 1
19864 28 1
19865 26 2
19866 19 1
19867 5 1
19868 4 2
19868 5 17
19868 38 10
19869 22 1
19870 38 1
19871 7 3
19871 8 15
19872 22 1
19872 25 1
19872 26 3
19873 31 3
19874 10 1
19875 24 1
19876 7 1
19877 3 1
19877 18 2
19877 19 6
19877 20 1
19878 18 18
19878 19 14
19878 20 8
19879 31 1
19880 8 1
19881 29 1
19882 4 4
19882 5 25
19882 11 1
19882 38 41
19883 4 3
19883 5 15
19883 38 7
19884 2 1
19885 2 1
19885 8 1
19886 3 1
19886 4 1
19886 5 2
19886 38 5
19887 24 9
19887 29 17
19887 38 1
19888 2 7
19888 3 17
19888 18 13
19888 19 8
19888 20 6
19888 34 18
19889 2 1
19890 8 1
19890 19 1
19890 21 10
19890 22 6
19891 38 1
19892 4 2
19892 5 13
19892 38 20
19893 3 1
19894 31 3
19895 5 1
19895 34 1
19896 18 3
19896 19 2
19896 20 3
19897 4 1
19897 5 17
19897 38 18
19898 3 1
19898 4 1
19899 15 1
19899 24 3
19900 14 1
19901 15 2
19901 16 4
19901 17 3
19901 34 1
19902 3 1
19902 34 1
19903 24 1
19904 21 1
19905 34 1
19906 31 1
19907 29 1
19908 12 1
19908 14 1
19909 24 8
19910 17 1
19911 3 1
19912 7 1
19913 11 1
19913 24 3
19914 24 1
19915 12 1
19915 24 1
19915 29 1
19916 24 1
19917 2 2
19917 3 4
19917 5 1
19917 34 2
19918 24 5
19919 9 1
19919 10 2
19919 11 2
19920 31 5
19921 8 1
19922 2 1
19923 3 1
19923 4 8
19923 5 33
19923 38 27
19924 5 1
19925 18 1
19926 2 3
19926 3 1
19926 19 1
19926 23 1
19926 24 4
19926 29 2
19926 34 5
19927 1 1
19927 2 2
19927 3 13
19927 7 1
19927 24 1
19927 34 17
19928 34 1
19929 24 7
19930 12 1
19931 38 1
19932 20 1
19933 21 1
19934 9 3
19935 2 8
19935 3 34
19935 34 36
19935 38 1
19936 4 2
19936 5 6
19936 38 3
19937 1 1
19937 2 29
19937 3 18
19937 34 42
19938 25 1
19938 26 4
19939 4 6
19939 5 19
19939 18 1
19939 38 20
19940 17 1
19941 34 1
19942 10 1
19942 12 1
19943 5 6
19943 38 6
19944 34 1
19945 24 1
19945 26 5
19945 29 15
19946 10 1
19946 34 1
19947 5 1
19948 26 6
19949 31 6
19950 30 1
19951 3 1
19952 2 1
19952 34 1
19953 1 1
19953 29 15
19953 30 3
19953 34 3
19954 14 1
19954 24 9
19954 34 1
19955 3 1
19955 17 1
19956 29 1
19957 31 10
19958 4 3
19958 5 15
19958 18 1
19958 38 11
19959 25 6
19959 26 19
19960 29 3
19960 34 1
19961 10 2
19962 30 1
19963 24 1
19964 7 18
19964 8 18
19965 24 1
19966 4 1
19966 5 3
19966 12 9
19966 14 3
19966 38 1
19967 21 13
19967 22 12
19968 1 2
19968 2 36
19968 3 27
19968 31 5
19968 34 46
19969 21 7
19969 22 4
19969 38 1
19970 8 1
19970 26 1
19970 29 1
19971 10 1
19971 21 8
19971 22 5
19972 20 1
19973 20 1
19974 24 1
19975 25 1
19975 26 1
19975 29 21
19975 30 2
19976 19 3
19977 3 1
19978 7 1
19979 8 1
19979 28 1
19980 24 1
19981 7 1
19981 11 1
19982 22 1
19983 31 1
19984 14 1
19985 10 1
19986 25 1
19987 38 1
19988 2 4
19988 3 12
19988 34 12
19989 29 1
19990 29 1
19991 4 2
19991 5 2
19991 38 6
19992 29 1
19993 3 1
19993 34 1
19994 18 1
19994 31 2
19995 22 1
19996 26 2
19997 10 1
19997 38 2
19998 38 1
19999 21 1
20000 5 1
20001 3 1
20001 24 7
20002 14 2
20002 18 8
20002 19 15
20002 20 6
20003 24 1
20004 5 1
20005 11 1
20006 38 1
20007 8 2
20007 28 3
20008 18 1
20008 21 13
20008 22 12
20009 18 1
20010 31 3
20011 18 1
20012 29 5
20013 14 1
20014 34 1
20015 38 1
20016 4 2
20016 5 12
20016 29 1
20016 38 9
20017 29 13
20018 31 1
20019 34 1
20020 24 1
20021 3 1
20021 18 1
20021 29 4
20021 30 1
20022 31 1
20023 3 1
20023 4 11
20023 5 37
20023 10 1
20023 11 2
20023 38 42
20024 2 4
20024 3 1
20024 19 1
20024 24 3
20024 34 3
20025 21 2
20026 14 1
20026 24 4
20026 29 2
20027 2 3
20027 3 8
20027 24 4
20027 34 11
20028 3 2
20029 2 1
20029 27 1
20029 28 1
20030 34 1
20031 31 1
20032 12 1
20033 24 3
20034 3 1
20035 20 1
20036 21 1
20036 22 1
20036 31 8
20037 34 1
20038 2 9
20038 3 17
20038 24 1
20038 34 18
20039 29 5
20039 30 1
20040 2 1
20040 15 1
20040 17 1
20041 3 1
20042 18 1
20043 8 1
20043 18 11
20043 19 22
20043 20 10
20043 24 1
20044 5 1
20045 17 1
20046 3 1
20046 38 1
20047 31 1
20048 4 1
20048 5 9
20048 38 7
20049 2 13
20049 3 25
20049 34 36
20050 2 1
20050 9 1
20050 10 2
20050 11 2
20050 24 1
20051 31 1
20052 8 1
20053 24 15
20053 34 1
20054 34 1
20055 19 1
20055 38 1
20056 12 1
20057 24 1
20058 24 1
20058 28 5
20059 4 3
20059 5 6
20059 29 3
20059 38 5
20060 14 1
20060 18 3
20060 19 5
20060 20 1
20061 5 1
20062 18 46
20062 19 54
20062 20 14
20062 24 1
20063 10 1
20064 24 13
20065 8 1
20066 5 1
20066 12 2
20066 14 1
20067 31 1
20068 3 1
20068 19 1
20068 24 7
20069 7 25
20069 8 35
20069 30 1
20070 34 1
20071 18 2
20072 31 11
20072 33 1
20073 21 18
20073 22 18
20073 24 1
20074 5 1
20075 14 1
20076 15 1
20076 17 1
20076 34 1
20077 2 1
20078 5 1
20079 2 12
20079 3 19
20079 19 1
20079 34 24
20080 34 1
20081 19 1
20082 21 1
20083 20 1
20084 3 1
20084 7 2
20084 8 2
20085 16 1
20086 12 6
20086 14 3
20087 5 1
20088 12 1
20089 1 2
20089 2 13
20089 3 18
20089 34 26
20090 11 2
20091 3 1
20092 7 1
20093 3 1
20094 3 1
20094 5 1
20094 29 11
20095 30 1
20096 21 1
20096 24 14
20097 2 3
20097 34 1
20098 29 8
20099 5 1
20099 12 1
20100 9 12
20100 10 30
20100 11 19
20101 16 1
20102 14 1
20102 21 1
20103 2 2
20103 3 4
20103 31 5
20103 34 3
20104 5 1
20105 34 1
20106 29 1
20108 4 1
20108 5 4
20108 38 9
20109 26 2
20110 2 1
20110 3 1
20110 34 2
20111 8 1
20112 20 1
20113 31 14
20114 3 1
20114 10 1
20114 24 1
20115 34 1
20116 18 1
20117 3 1
20117 4 5
20117 5 29
20117 18 8
20117 19 14
20117 20 9
20117 38 28
20118 22 1
20119 19 1
20119 23 1
20119 24 10
20120 26 1
20121 24 12
20122 3 1
20122 18 1
20122 38 1
20123 2 1
20123 25 1
20123 26 7
20123 38 2
20124 5 1
20125 19 1
20125 24 4
20125 29 1
20125 30 1
20125 31 9
20126 28 1
20127 8 2
20128 2 1
20129 38 1
20130 21 14
20130 22 10
20131 21 23
20131 22 11
20132 28 4
20133 31 1
20134 24 5
20135 3 1
20136 5 1
20137 18 1
20138 31 1
20139 17 1
20140 4 1
20140 5 1
20140 19 1
20140 38 1
20141 9 1
20142 5 1
20142 26 1
20142 29 30
20142 30 1
20143 25 1
20143 26 1
20144 2 7
20144 3 17
20144 26 1
20144 34 15
20145 24 1
20146 19 1
20146 24 3
20147 24 1
20148 1 1
20148 2 5
20148 3 5
20148 34 4
20149 34 1
20150 8 1
20151 19 1
20152 22 1
20153 24 1
20154 24 2
20154 34 1
20155 21 1
20156 21 22
20156 22 19
20157 3 1
20158 31 1
20159 17 1
20159 31 10
20159 32 1
20159 38 1
20160 19 1
20161 3 1
20161 38 1
20162 29 1
20163 9 12
20163 10 14
20163 11 14
20163 26 1
20163 38 1
20164 1 1
20164 2 15
20164 3 31
20164 5 1
20164 34 29
20165 12 2
20165 14 1
20166 3 1
20167 2 1
20167 4 6
20167 5 20
20167 22 1
20167 38 25
20168 5 1
20169 5 1
20170 34 1
20171 21 1
20172 38 1
20173 28 3
20174 22 1
20175 2 2
20175 3 8
20175 34 12
20176 9 1
20176 10 2
20176 11 5
20176 12 4
20176 14 7
20177 29 1
20177 31 1
20177 34 1
20178 5 1
20179 34 1
20180 29 1
20181 24 16
20181 28 2
20181 34 1
20182 4 4
20182 5 11
20182 38 20
20183 20 1
20183 31 5
20184 19 1
20184 21 1
20184 29 7
20184 30 1
20185 34 1
20186 24 6
20187 12 1
20187 38 1
20188 1 3
20188 2 6
20188 3 22
20188 34 16
20189 34 1
20190 12 18
20190 13 1
20190 14 13
20191 29 1
20192 11 1
20192 28 4
20193 28 8
20194 4 1
20194 22 1
20194 24 1
20194 29 2
20194 38 1
20195 19 1
20195 23 2
20195 24 2
20196 4 2
20196 5 9
20196 38 11
20197 34 1
20198 18 1
20198 26 4
20199 2 16
20199 3 38
20199 15 1
20199 34 30
20200 24 9
20201 34 1
20202 12 1
20203 7 2
20204 31 16
20205 18 5
20205 19 3
20205 20 1
20206 24 2
20206 34 1
20207 22 1
20208 7 1
20208 10 3
20208 21 1
20209 4 4
20209 5 28
20209 22 1
20209 38 26
20210 8 1
20211 15 1
20211 16 3
20211 17 1
20212 5 1
20213 29 6
20214 9 20
20214 10 37
20214 11 20
20214 28 1
20215 2 2
20215 4 1
20215 34 1
20215 38 1
20216 24 13
20217 4 1
20217 5 7
20217 17 1
20217 18 2
20217 19 4
20217 20 3
20217 38 12
20218 3 1
20218 14 1
20218 31 3
20219 38 1
20220 38 1
20221 3 1
20222 19 1
20223 3 1
20224 9 1
20224 18 1
20224 38 1
20225 3 1
20225 19 1
20225 22 1
20226 34 1
20227 4 1
20227 5 5
20227 12 1
20227 38 5
20228 18 1
20228 31 15
20229 21 1
20230 11 2
20231 18 1
20231 19 1
20231 29 1
20231 34 1
20232 3 1
20233 24 1
20234 3 1
20235 3 1
20236 24 2
20236 28 1
20237 25 1
20238 14 1
20239 4 7
20239 5 33
20239 11 1
20239 38 46
20240 3 1
20240 12 7
20240 13 2
20240 14 9
20241 1 1
20241 2 8
20241 3 13
20241 34 15
20242 19 1
20242 31 1
20242 34 1
20243 5 1
20243 31 1
20244 24 7
20245 18 1
20245 29 10
20246 3 1
20246 9 1
20246 10 3
20246 11 3
20246 17 5
20247 3 1
20248 10 1
20248 11 1
20248 21 20
20248 22 7
20249 19 1
20250 11 1
20251 24 5
20252 10 1
20252 29 9
20252 30 1
20253 23 1
20253 24 9
20253 29 3
20253 34 1
20254 12 1
20255 15 1
20255 16 2
20255 17 4
20256 18 10
20256 19 13
20256 20 2
20256 38 1
20257 34 1
20257 38 1
20258 38 1
20259 5 1
20260 20 1
20261 26 1
20262 19 1
20262 24 5
20263 3 1
20264 34 1
20265 22 1
20265 24 9
20266 2 1
20267 18 22
20267 19 14
20267 20 2
20268 31 1
20269 15 1
20269 31 3
20270 3 1
20271 15 1
20271 16 3
20271 17 5
20272 1 1
20272 22 1
20273 5 1
20273 29 1
20273 31 1
20274 20 1
20275 19 1
20275 25 1
20275 26 8
20275 29 2
20275 34 3
20276 34 1
20277 18 1
20278 3 1
20279 29 3
20280 24 2
20280 31 2
20281 31 1
20281 34 1
20282 8 1
20282 19 1
20282 25 1
20282 29 1
20283 9 1
20284 12 1
20284 18 1
20284 19 1
20285 29 3
20286 38 1
20287 24 3
20288 38 1
20289 24 2
20290 24 18
20291 28 3
20291 34 1
20292 26 1
20293 38 1
20294 31 1
20295 2 7
20295 3 16
20295 22 1
20295 34 8
20296 31 3
20297 31 1
20298 10 1
20299 34 1
20300 12 1
20301 28 8
20302 24 3
20303 24 12
20304 12 9
20304 14 7
20305 2 1
20306 22 1
20307 1 2
20307 2 5
20307 3 20
20307 34 22
20308 21 1
20308 29 13
20309 19 1
20310 2 1
20310 21 4
20310 22 4
20311 9 1
20311 10 1
20312 21 2
20312 22 2
20313 2 1
20313 3 6
20313 21 1
20313 24 1
20313 26 2
20313 29 13
20313 30 3
20313 31 2
20313 34 4
20314 29 5
20315 24 1
20316 18 20
20316 19 15
20316 20 1
20317 28 2
20318 3 1
20319 14 1
20319 18 10
20319 19 11
20319 20 4
20320 1 1
20320 2 17
20320 3 54
20320 34 57
20321 24 1
20322 2 1
20323 22 1
20324 29 1
20325 5 1
20326 29 14
20326 30 1
20327 2 15
20327 3 24
20327 34 30
20328 5 1
20329 3 1
20330 1 1
20330 2 5
20330 3 21
20330 26 1
20330 34 26
20331 34 1
20332 38 1
20333 3 9
20333 34 8
20334 38 1
20335 28 2
20336 3 1
20336 9 2
20336 10 9
20336 11 6
20337 12 3
20337 14 1
20338 2 2
20338 3 15
20338 34 12
20339 18 1
20340 8 1
20341 3 1
20342 19 1
20342 20 1
20343 21 1
20344 24 19
20345 4 1
20345 5 3
20345 18 1
20345 38 6
20346 18 10
20346 19 8
20346 20 7
20347 24 7
20348 5 1
20349 24 2
20349 29 3
20350 1 1
20350 2 15
20350 3 24
20350 34 30
20351 1 1
20351 2 15
20351 3 27
20351 34 35
20352 29 1
20353 3 1
20353 19 1
20353 20 1
20354 3 1
20354 7 5
20354 8 13
20354 21 1
20355 29 4
20355 30 1
20356 2 1
20357 15 1
20357 16 7
20357 17 4
20358 34 1
20359 34 1
20360 4 1
20361 7 1
20361 14 1
20362 29 1
20363 4 2
20363 19 1
20363 28 2
20364 3 1
20365 19 1
20366 10 1
20366 38 1
20367 1 1
20367 2 7
20367 3 10
20367 34 15
20368 7 11
20368 8 6
20368 31 1
20369 3 1
20370 3 2
20371 3 1
20371 28 1
20372 34 1
20373 3 1
20374 3 1
20375 9 25
20375 10 45
20375 11 20
20376 21 1
20377 7 5
20377 8 7
20378 38 1
20379 24 1
20380 19 1
20381 12 1
20381 14 3
20382 28 2
20383 1 1
20383 2 2
20383 3 5
20383 34 6
20384 22 1
20385 3 1
20385 15 5
20385 16 6
20386 34 1
20387 34 1
20388 2 10
20388 3 25
20388 11 1
20388 29 28
20388 30 2
20388 34 30
20389 24 1
20390 24 1
20391 17 1
20392 3 1
20393 5 1
20394 29 1
20394 34 1
20395 2 1
20395 25 1
20395 26 1
20395 29 19
20395 30 1
20396 15 1
20397 30 1
20398 3 1
20398 7 2
20398 8 3
20398 38 1
20399 4 2
20399 5 10
20399 24 1
20399 38 8
20400 5 1
20400 18 1
20401 31 10
20402 31 1
20403 7 4
20403 8 5
20404 28 3
20404 31 1
20405 31 3
20406 10 1
20407 4 1
20408 12 3
20408 14 1
20408 18 4
20408 19 6
20408 20 2
20409 26 21
20410 3 1
20411 23 1
20411 24 12
20412 29 12
20413 38 1
20414 24 1
20415 3 1
20416 20 1
20417 2 3
20417 3 4
20417 34 4
20418 15 3
20418 16 1
20418 29 1
20418 38 2
20419 24 3
20419 29 1
20420 10 1
20420 15 7
20420 16 2
20420 17 2
20420 21 1
20421 5 2
20421 19 1
20421 38 6
20422 18 1
20422 19 1
20422 20 2
20423 29 1
20424 2 1
20424 17 1
20424 28 2
20425 29 1
20426 5 2
20427 5 1
20427 7 2
20427 8 8
20427 34 1
20428 15 8
20428 16 6
20428 17 5
20428 18 2
20428 19 1
20428 20 1
20429 12 17
20429 13 3
20429 14 18
20429 19 1
20430 12 1
20431 31 1
20432 12 14
20432 13 2
20432 14 11
20432 26 1
20433 15 1
20434 5 1
20434 12 1
20434 17 1
20434 24 3
20434 29 5
20434 30 2
20434 31 5
20435 34 1
20436 2 1
20436 3 1
20437 9 25
20437 10 27
20437 11 30
20437 34 1
20437 38 1
20438 5 1
20439 18 1
20440 22 1
20441 25 1
20441 26 3
20441 38 1
20442 20 1
20443 38 1
20444 20 1
20445 2 1
20446 29 1
20447 2 4
20447 3 6
20447 24 4
20447 34 3
20448 22 1
20449 21 1
20450 11 1
20451 34 1
20451 38 1
20452 5 6
20452 38 3
20453 11 1
20453 14 1
20454 9 5
20454 10 9
20454 11 5
20455 18 2
20455 19 2
20456 2 10
20456 3 17
20456 29 3
20456 30 1
20456 34 19
20457 25 3
20457 26 15
20458 2 7
20458 3 9
20458 34 13
20459 24 10
20459 34 1
20460 19 1
20460 24 1
20461 8 1
20462 4 6
20462 5 10
20462 22 1
20462 38 15
20463 2 1
20464 5 1
20464 20 1
20465 5 1
20466 15 9
20466 16 2
20466 17 1
20466 24 1
20466 38 1
20467 1 1
20467 2 11
20467 3 35
20467 34 34
20468 15 4
20468 16 5
20468 17 1
20469 31 2
20470 3 1
20471 18 10
20471 19 8
20472 4 9
20472 5 22
20472 21 1
20472 38 19
20473 24 2
20473 29 6
20473 30 1
20474 5 1
20475 12 1
20476 18 23
20476 19 12
20476 20 3
20476 38 1
20477 2 1
20478 18 1
20479 34 1
20480 28 2
20481 15 1
20481 29 1
20482 29 3
20483 21 5
20483 22 3
20484 18 15
20484 19 21
20484 20 5
20485 9 1
20486 26 1
20487 22 1
20488 29 1
20489 2 15
20489 3 22
20489 9 1
20489 23 1
20489 24 37
20489 28 9
20489 34 23
20490 24 1
20491 3 1
20492 8 1
20492 24 1
20492 29 1
20493 24 8
20494 16 1
20494 17 1
20495 7 1
20496 18 16
20496 19 12
20496 20 11
20497 38 1
20498 2 1
20498 34 1
20499 20 1
20500 24 1
20501 38 1
20502 12 1
20502 15 3
20502 16 3
20502 17 4
20502 21 21
20502 22 22
20503 2 2
20503 3 5
20503 24 10
20503 34 3
20504 3 3
20504 7 2
20504 8 11
20504 29 1
20504 34 2
20505 16 1
20506 38 1
20507 24 1
20508 5 2
20508 38 4
20509 7 1
20510 2 14
20510 3 14
20510 23 1
20510 24 5
20510 31 1
20510 34 15
20511 24 8
20512 2 1
20513 12 8
20513 14 4
20514 7 1
20514 8 13
20514 9 1
20514 18 1
20515 5 9
20515 12 24
20515 13 1
20515 14 16
20515 31 1
20515 38 14
20516 2 8
20516 3 19
20516 34 41
20517 21 1
20518 34 1
20519 29 10
20519 30 1
20520 19 1
20520 29 1
20521 12 1
20521 28 1
20522 2 6
20522 3 28
20522 34 35
20523 29 1
20524 21 1
20524 22 3
20524 34 1
20525 15 2
20525 17 1
20526 3 1
20526 31 17
20527 2 1
20528 24 23
20529 28 5
20529 29 4
20530 38 1
20531 17 1
20532 28 6
20533 14 1
20534 21 1
20535 4 3
20535 5 4
20535 38 9
20536 2 13
20536 3 29
20536 34 43
20537 18 21
20537 19 31
20537 20 10
20538 12 1
20539 12 5
20539 13 1
20539 14 1
20539 34 1
20540 12 7
20540 14 3
20541 25 1
20541 26 4
20542 3 1
20543 9 1
20543 21 2
20543 26 1
20543 29 11
20543 30 1
20544 3 1
20544 34 1
20545 2 1
20545 5 1
20545 8 2
20545 19 1
20546 24 11
20547 12 1
20547 24 1
20548 18 1
20549 21 40
20549 22 29
20550 2 1
20550 31 4
20551 15 1
20551 16 1
20551 21 5
20552 3 1
20553 19 1
20554 2 11
20554 3 19
20554 34 20
20555 5 1
20555 10 1
20555 26 1
20555 31 5
20556 29 1
20557 2 1
20558 22 1
20559 19 1
20560 18 34
20560 19 34
20560 20 12
20560 34 1
20561 17 3
20561 18 5
20561 19 2
20561 20 1
20562 18 1
20562 21 1
20562 29 31
20562 30 3
20563 15 2
20563 16 1
20564 3 1
20565 4 6
20565 5 34
20565 38 34
20566 31 1
20567 1 1
20567 2 15
20567 3 30
20567 34 43
20568 2 2
20568 3 4
20568 31 1
20568 34 2
20569 10 1
20570 28 2
20571 29 1
20572 21 1
20573 3 1
20574 34 1
20575 12 1
20575 38 1
20576 2 1
20576 3 1
20576 29 2
20576 34 2
20577 28 1
20577 34 1
20578 4 1
20579 24 15
20580 24 2
20581 31 9
20581 33 1
20582 2 1
20582 19 4
20582 20 1
20583 18 51
20583 19 70
20583 20 18
20583 38 1
20584 2 1
20584 3 1
20584 24 6
20584 34 2
20585 16 1
20586 29 23
20587 3 1
20588 18 1
20589 12 1
20590 2 1
20590 3 9
20590 34 10
20591 24 16
20592 4 1
20593 22 2
20594 34 1
20595 21 1
20596 5 2
20596 38 6
20598 2 1
20599 12 17
20599 14 10
20599 29 1
20600 2 1
20601 28 1
20601 31 21
20602 31 1
20603 2 1
20603 9 16
20603 10 25
20603 11 10
20604 9 1
20605 1 1
20605 2 2
20605 3 21
20605 9 1
20605 34 25
20606 2 18
20606 3 19
20606 26 1
20606 34 33
20607 3 1
20608 29 7
20608 30 1
20609 5 1
20610 2 1
20610 4 2
20610 5 7
20610 12 1
20610 38 13
20611 26 1
20611 38 1
20612 8 1
20613 3 1
20614 4 1
20615 2 1
20615 23 1
20615 24 13
20616 12 1
20617 10 1
20617 34 1
20618 3 2
20619 5 8
20619 24 1
20619 38 12
20620 4 2
20620 5 11
20620 28 2
20620 38 20
20621 12 3
20621 14 2
20622 18 19
20622 19 18
20622 20 13
20623 28 1
20623 38 1
20624 5 1
20625 7 1
20626 17 1
20627 24 1
20628 24 1
20629 28 4
20630 21 10
20630 22 7
20631 2 6
20631 3 23
20631 34 53
20632 19 1
20633 3 1
20634 4 4
20634 5 26
20634 38 35
20635 23 1
20635 29 6
20636 38 1
20637 24 4
20638 29 1
20639 5 1
20640 17 1
20641 7 5
20641 8 5
20641 30 1
20642 19 1
20643 2 1
20644 5 1
20645 26 4
20646 12 1
20646 38 1
20647 34 1
20647 38 1
20648 15 1
20648 34 1
20649 21 1
20650 14 1
20651 2 1
20652 18 1
20653 29 1
20654 38 1
20655 2 5
20655 3 3
20655 4 3
20655 5 7
20655 34 1
20655 38 11
20656 10 1
20657 2 1
20657 3 3
20657 38 1
20658 4 6
20658 5 35
20658 38 33
20659 11 1
20660 2 1
20661 8 1
20662 4 1
20662 5 1
20662 38 7
20663 24 1
20664 12 1
20664 31 3
20665 15 14
20665 16 6
20665 17 16
20666 3 1
20666 28 1
20667 7 1
20667 8 1
20667 19 1
20668 4 5
20668 5 28
20668 38 45
20669 38 1
20670 29 1
20671 3 1
20671 9 7
20671 10 8
20671 11 9
20672 10 1
20673 3 1
20673 34 2
20674 4 1
20674 5 11
20674 38 20
20675 12 2
20676 21 1
20677 24 2
20678 18 1
20678 34 1
20679 30 1
20680 12 13
20680 14 9
20681 14 1
20682 24 1
20683 2 11
20683 3 20
20683 34 24
20684 26 1
20685 29 3
20685 38 1
20686 18 1
20686 24 1
20687 2 1
20688 3 1
20689 5 1
20690 19 1
20691 24 1
20692 29 1
20693 11 1
20694 5 1
20694 29 1
20695 4 1
20696 18 1
20697 23 1
20697 24 17
20698 2 14
20698 3 21
20698 34 33
20699 1 1
20700 24 4
20701 24 1
20702 15 9
20702 17 2
20703 3 1
20703 26 1
20703 34 1
20704 22 1
20705 3 1
20705 34 4
20706 34 1
20707 34 1
20708 2 1
20708 5 1
20709 19 1
20710 34 1
20711 3 1
20711 31 14
20712 2 1
20712 3 1
20712 24 5
20712 34 1
20713 34 1
20714 5 10
20714 28 1
20714 38 10
20715 11 1
20715 22 1
20715 24 9
20716 16 1
20717 21 6
20717 22 1
20718 8 1
20718 24 1
20718 29 1
20719 3 2
20720 25 1
20720 31 25
20721 8 1
20722 9 6
20722 10 15
20722 11 4
20723 24 1
20724 4 1
20724 5 2
20724 38 4
20725 2 1
20726 10 1
20727 29 7
20727 30 2
20727 31 2
20728 23 1
20728 24 12
20729 7 3
20729 8 7
20730 7 3
20730 8 2
20731 22 1
20732 1 1
20732 2 11
20732 3 18
20732 34 45
20733 9 3
20733 10 3
20733 11 3
20733 15 1
20734 3 1
20735 10 1
20735 11 1
20736 19 1
20736 28 14
20737 5 1
20738 38 1
20739 3 1
20739 21 1
20739 38 1
20740 19 1
20741 24 1
20742 15 12
20742 16 6
20742 17 7
20742 20 1
20742 21 1
20742 34 1
20743 9 1
20743 10 7
20743 11 2
20743 21 4
20744 7 1
20744 24 14
20745 4 2
20745 5 7
20745 10 9
20745 11 2
20745 26 1
20745 34 1
20745 38 10
20746 2 33
20746 3 61
20746 34 69
20747 1 1
20747 2 9
20747 3 16
20747 34 23
20748 26 1
20749 2 2
20749 3 8
20749 34 8
20750 38 1
20751 34 1
20752 2 1
20752 14 1
20752 21 1
20752 34 1
20753 34 1
20754 24 4
20755 3 1
20756 5 1
20757 1 1
20757 2 3
20757 3 7
20757 34 6
20758 11 1
20759 5 1
20759 12 36
20759 13 2
20759 14 25
20760 3 1
20761 3 1
20762 2 6
20762 3 4
20762 25 2
20762 26 4
20762 34 3
20763 34 1
20764 25 1
20764 26 1
20765 30 1
20766 29 1
20767 28 1
20768 3 1
20769 28 1
20770 29 1
20771 10 1
20772 26 1
20772 28 1
20773 34 1
20774 12 1
20774 18 1
20775 5 1
20776 29 1
20777 38 1
20778 21 7
20778 22 6
20779 3 1
20780 26 4
20780 31 1
20781 2 4
20781 3 3
20781 30 1
20781 34 8
20782 29 1
20783 22 1
20784 19 1
20785 3 1
20786 18 7
20786 19 5
20786 20 4
20787 2 1
20788 24 1
20788 29 32
20788 30 2
20789 8 1
20790 14 1
20791 24 2
20792 18 1
20793 3 1
20793 12 12
20793 14 3
20793 38 1
20794 5 1
20795 2 1
20795 24 2
20795 34 1
20796 34 1
20797 2 1
20798 21 1
20799 24 1
20800 12 2
20800 18 2
20800 19 2
20800 20 3
20801 3 1
20801 18 17
20801 19 17
20801 20 2
20801 34 1
20802 2 1
20802 29 10
20802 30 1
20803 22 1
20803 24 3
20804 2 1
20804 3 7
20804 34 6
20805 3 1
20805 11 1
20806 28 1
20807 15 2
20807 16 1
20807 17 1
20808 28 1
20809 3 1
20809 23 1
20809 24 3
20809 28 1
20810 2 9
20810 3 16
20810 34 33
20811 17 1
20812 11 1
20813 15 5
20813 16 5
20813 17 7
20813 34 1
20814 8 4
20814 29 1
20815 8 1
20816 38 1
20817 30 1
20818 38 1
20819 2 1
20819 3 1
20819 34 1
20820 21 1
20821 21 25
20821 22 15
20822 11 1
20822 20 1
20823 19 1
20824 5 1
20825 2 1
20825 20 1
20826 3 1
20827 34 1
20828 29 16
20828 30 1
20828 31 6
20829 18 1
20830 29 1
20831 21 1
20832 4 8
20832 5 12
20832 38 19
20833 38 1
20834 29 4
20834 30 1
20835 38 1
20836 2 4
20836 3 7
20836 24 15
20836 34 8
20837 29 1
20838 38 1
20839 19 1
20840 9 1
20841 38 2
20842 21 1
20843 22 2
20844 28 6
