%%MatrixMarket matrix coordinate real general
%
18582 38 33860                                                    
1 19 1
2 34 1
3 3 1
3 24 4
4 29 16
4 34 1
5 31 10
6 3 1
7 28 2
8 2 1
8 23 1
8 24 9
9 10 1
10 29 5
11 12 18
11 14 16
12 29 1
13 28 2
14 15 1
15 7 12
15 8 19
16 7 1
17 3 1
17 31 9
18 31 1
19 4 4
19 5 5
19 38 13
20 24 4
21 29 1
22 3 1
23 29 1
24 24 1
25 7 3
25 8 8
26 34 1
27 24 16
28 7 11
28 8 18
29 3 1
30 7 1
30 28 2
31 7 1
32 31 16
33 38 1
34 34 1
35 2 6
35 3 9
35 34 16
36 18 1
36 24 15
37 25 1
37 26 16
37 38 1
38 2 1
39 14 1
40 8 1
40 24 5
41 34 1
42 28 7
43 9 1
44 15 1
45 29 14
45 30 1
46 2 1
46 3 2
46 34 3
47 21 24
47 22 14
48 9 3
48 10 1
49 29 1
50 34 1
51 25 3
51 26 11
52 19 1
53 26 1
54 19 1
55 3 1
56 3 1
56 12 1
56 18 25
56 19 25
56 20 14
57 12 1
58 26 3
59 29 1
60 24 1
61 4 1
61 5 1
61 34 1
62 12 20
62 14 17
63 5 2
63 16 1
63 24 5
63 38 4
64 15 1
64 16 2
64 17 1
65 24 1
66 18 1
67 31 1
68 24 2
69 15 1
69 17 1
70 15 1
70 17 2
71 18 1
71 21 3
71 22 2
72 34 1
73 26 1
74 7 1
74 18 15
74 19 17
74 20 3
74 21 1
75 31 2
75 34 1
76 24 1
77 26 4
78 31 9
79 3 1
79 8 1
80 5 1
80 34 1
81 12 1
82 7 1
83 2 19
83 3 25
83 34 26
84 2 1
84 9 5
84 10 5
84 11 3
85 18 1
85 29 3
86 25 1
87 2 13
87 3 16
87 34 21
88 29 3
89 14 1
90 29 5
90 34 1
91 29 1
92 20 1
93 10 1
94 4 4
94 5 18
94 38 21
95 34 1
96 5 1
97 18 2
97 29 1
97 38 1
98 5 1
99 24 1
100 5 1
100 21 1
100 29 1
101 12 6
102 18 67
102 19 76
102 20 18
103 28 6
104 21 1
105 29 5
106 3 1
106 12 1
106 15 1
106 34 1
107 4 1
108 23 1
108 24 6
109 29 1
110 18 1
111 31 3
111 34 1
112 20 1
113 24 1
114 2 2
114 3 6
114 29 1
114 34 7
115 21 1
116 2 6
116 3 8
116 9 1
116 34 16
117 24 5
118 16 1
119 29 5
119 30 1
120 4 2
120 5 6
120 38 7
121 18 1
122 18 1
123 18 1
124 16 1
125 1 1
125 2 10
125 3 16
125 34 24
126 3 1
126 11 1
127 5 1
128 31 1
129 18 1
130 9 10
130 10 6
130 11 8
130 18 1
131 9 1
132 26 4
133 2 1
133 21 1
133 31 1
134 24 1
134 30 1
135 34 1
136 3 1
136 8 1
136 34 2
137 8 1
138 2 1
138 9 10
138 10 24
138 11 8
139 20 1
139 24 1
140 21 1
141 24 1
142 5 1
142 38 1
143 3 1
143 11 1
143 12 3
143 21 6
143 22 3
144 4 9
144 5 52
144 38 54
145 2 5
145 3 4
145 18 2
145 24 1
145 34 5
146 24 4
147 34 2
148 31 3
149 34 1
150 21 1
151 5 3
152 38 1
153 2 3
153 3 13
153 34 11
154 5 1
155 34 1
156 4 13
156 5 41
156 38 45
157 2 1
157 14 1
157 15 2
157 16 1
157 24 1
157 31 1
158 2 2
158 5 1
158 8 1
158 14 1
158 17 1
158 19 1
158 34 1
159 3 1
159 34 1
160 38 1
161 24 3
162 34 1
163 10 3
163 19 1
164 12 1
164 18 1
165 34 1
166 31 8
167 4 1
167 5 6
167 12 6
167 14 1
167 21 12
167 22 3
167 38 21
168 3 1
168 16 1
168 19 1
169 2 1
169 38 1
170 5 1
171 5 1
171 12 1
172 26 1
172 31 1
173 19 1
173 29 1
174 31 1
175 3 1
176 2 1
177 1 3
177 2 5
177 3 21
177 34 41
178 18 1
179 29 1
180 15 7
180 16 5
180 17 7
181 34 1
182 19 1
182 24 1
183 2 10
183 3 11
183 34 8
184 3 1
185 34 1
186 38 1
187 2 4
187 3 5
187 34 9
188 20 1
188 29 1
189 29 1
190 38 1
191 18 1
192 24 25
193 15 3
193 16 5
193 17 11
194 31 13
195 3 1
195 9 3
195 10 3
195 11 2
196 2 1
197 31 1
198 3 1
198 15 1
198 16 1
198 17 1
199 16 1
200 5 1
201 9 2
201 10 4
201 11 3
201 12 30
201 14 28
202 29 10
203 29 4
204 5 15
204 38 12
205 38 1
206 3 1
206 8 1
207 31 1
208 5 1
208 8 1
208 28 1
209 5 1
209 17 1
209 29 11
209 30 3
210 3 1
210 31 1
211 34 1
212 22 1
213 24 1
214 7 1
215 3 1
215 34 1
216 11 1
216 24 16
217 4 1
218 2 12
218 3 26
218 31 6
218 34 34
219 2 1
219 19 1
220 15 1
220 34 1
221 24 7
222 31 5
223 29 1
223 30 1
224 29 2
225 5 1
225 28 4
225 34 2
226 3 1
227 24 13
228 38 1
229 1 2
229 2 14
229 3 22
229 19 1
229 34 25
230 8 1
230 31 4
231 19 1
231 31 2
232 4 1
232 5 5
232 38 9
233 3 1
233 5 1
233 34 1
234 5 4
234 38 3
235 24 5
236 31 1
237 24 3
238 29 2
238 30 1
239 18 1
240 29 2
241 31 1
241 34 1
242 19 1
243 2 2
243 3 3
243 34 3
244 7 1
244 24 4
245 2 2
245 3 4
245 34 4
246 11 1
247 4 5
247 5 37
247 12 1
247 38 28
248 38 1
249 15 1
250 19 1
251 12 2
251 34 1
252 28 4
253 38 1
254 3 1
255 2 11
255 3 40
255 23 1
255 34 59
256 14 1
257 31 4
258 7 2
258 8 4
259 19 3
259 20 1
259 34 1
259 38 1
260 22 1
261 24 5
262 19 1
263 24 17
263 38 1
264 14 1
265 24 6
266 2 1
266 24 15
267 10 1
268 21 1
269 3 1
269 22 1
270 12 12
270 13 1
270 14 7
271 29 8
271 30 1
272 3 1
272 26 2
273 29 4
274 29 1
275 22 1
276 8 1
276 26 2
277 26 4
278 21 1
279 5 1
279 38 1
280 4 8
280 5 21
280 38 34
281 7 1
282 31 17
283 5 1
283 34 2
284 24 1
284 28 3
285 29 14
286 5 1
287 5 5
287 38 7
288 38 1
289 34 1
290 2 10
290 3 18
290 34 20
291 17 1
292 38 1
293 38 1
294 18 1
295 9 12
295 10 23
295 11 8
295 24 1
296 22 1
297 2 1
297 21 6
297 22 2
298 24 3
299 31 33
300 2 1
301 4 13
301 5 73
301 18 1
301 24 1
301 38 85
302 15 1
302 21 1
303 23 1
303 24 6
304 5 6
304 24 1
304 29 1
304 30 1
304 38 6
305 18 5
305 19 10
305 20 3
306 4 1
307 15 8
307 16 11
307 17 5
308 9 7
308 10 6
309 18 1
309 38 1
310 27 1
310 28 5
311 18 14
311 19 18
311 20 2
312 21 8
312 22 5
313 27 1
313 28 1
313 29 1
314 34 1
315 34 1
316 10 1
317 29 2
318 9 2
318 16 1
318 18 20
318 19 18
318 20 14
319 26 6
320 24 5
321 29 23
321 30 3
322 18 1
323 9 2
323 10 7
323 11 5
324 34 1
325 31 1
326 4 1
327 21 1
328 24 13
329 4 1
330 24 1
330 26 1
331 12 1
331 13 1
331 14 1
332 38 1
333 28 1
334 5 1
334 18 1
334 19 1
335 9 1
335 10 1
335 11 1
335 38 1
336 38 1
337 2 3
337 3 7
337 34 2
338 4 4
338 5 20
338 14 1
338 38 14
339 38 1
340 2 1
340 3 9
340 9 1
340 34 10
341 10 1
342 18 13
342 19 15
342 20 4
343 7 1
343 9 1
343 12 1
343 24 1
343 29 1
343 34 2
343 38 2
344 3 1
344 18 1
345 21 1
346 22 1
347 9 1
348 9 15
348 10 24
348 11 20
348 14 1
349 24 3
350 31 1
351 23 1
351 24 1
352 29 1
353 3 1
354 14 1
355 18 1
356 24 1
357 29 39
358 19 1
358 20 2
359 9 1
360 38 1
361 34 1
362 4 1
362 5 4
362 9 1
362 38 9
363 34 1
364 38 1
365 18 2
365 19 2
365 20 1
365 30 1
366 5 1
366 8 1
366 12 1
367 34 1
368 5 1
369 28 4
369 34 1
370 7 1
370 8 1
370 19 1
370 38 1
371 29 16
371 30 1
372 29 1
373 18 1
374 15 1
375 24 10
376 3 1
376 16 1
377 20 2
378 7 9
378 8 9
379 38 1
380 34 1
381 25 1
381 26 13
381 38 1
382 8 1
382 22 1
382 38 1
383 2 9
383 3 16
383 17 1
383 34 18
384 34 1
385 3 1
385 18 1
385 28 2
386 21 20
386 22 15
386 34 1
387 28 2
387 29 18
387 30 4
388 4 6
388 5 37
388 29 1
388 38 46
389 23 1
389 24 11
390 34 1
391 34 1
392 18 1
393 4 2
393 5 4
393 38 12
394 34 1
395 24 12
395 29 1
396 34 1
397 19 1
398 12 40
398 13 1
398 14 23
398 31 1
399 26 2
400 23 1
401 4 1
402 14 1
403 2 1
403 31 3
403 34 2
404 16 1
405 5 2
406 17 1
407 24 1
407 28 2
408 15 1
408 17 2
408 19 1
408 34 1
409 24 3
409 29 3
410 28 1
411 4 1
411 38 3
412 38 1
413 25 1
413 26 5
414 21 1
415 19 1
415 31 9
416 4 7
416 5 34
416 38 41
417 24 4
418 9 10
418 10 8
418 11 5
419 18 1
419 19 3
420 15 1
421 29 1
422 38 1
423 24 1
423 31 6
424 2 2
424 3 7
424 34 5
425 21 8
425 22 3
426 31 17
427 24 1
428 34 1
429 5 1
430 4 2
430 5 15
430 38 22
431 21 2
431 22 1
432 29 5
433 31 1
434 18 1
435 7 1
435 34 1
436 22 1
437 12 13
437 14 2
438 34 1
439 20 1
440 12 14
440 14 9
441 29 1
442 2 8
442 3 18
442 34 21
443 4 6
443 5 33
443 34 1
443 38 25
444 21 1
445 28 1
446 12 6
446 13 1
446 14 3
447 29 1
448 14 1
448 29 1
449 3 1
450 29 1
451 5 1
452 5 1
453 20 1
454 5 3
454 38 11
455 3 1
456 3 1
456 4 10
456 5 26
456 38 26
457 38 1
458 29 1
460 5 1
461 21 62
461 22 39
462 14 1
463 24 1
464 12 2
465 18 25
465 19 33
465 20 4
466 19 1
467 3 1
467 24 1
468 38 1
469 19 1
469 24 7
470 24 15
470 29 1
470 31 8
471 3 1
472 12 1
473 20 1
474 25 1
474 26 10
475 24 3
476 7 4
476 8 7
477 29 2
478 12 3
478 14 7
479 21 4
479 22 2
480 21 5
480 22 4
481 9 1
481 21 1
482 24 4
482 38 1
483 28 1
484 4 1
484 5 7
484 38 9
485 34 1
486 18 2
487 18 1
488 4 10
488 5 33
488 34 1
488 38 52
489 38 1
490 12 26
490 14 25
490 19 1
491 24 5
492 5 1
493 2 1
493 31 2
494 20 1
495 1 1
495 3 1
495 34 3
496 19 1
497 5 1
498 8 1
498 21 1
499 12 1
500 10 1
500 15 1
500 16 1
500 17 1
501 12 1
501 14 1
502 29 1
503 25 1
504 2 3
504 3 9
504 34 7
505 2 1
506 18 1
506 29 1
507 2 1
508 5 1
509 8 1
510 24 16
511 24 9
511 28 4
512 3 1
512 21 2
513 8 1
514 9 1
514 29 3
515 15 1
516 19 1
516 21 1
516 38 1
517 31 12
517 33 1
518 18 1
519 9 11
519 10 12
519 11 3
520 29 15
520 30 4
521 38 1
522 4 1
522 24 2
523 24 16
523 38 1
524 7 1
525 34 1
526 2 6
526 3 7
526 34 7
527 34 1
528 4 1
529 21 1
530 24 1
531 21 15
531 22 8
532 3 1
533 3 1
533 14 1
534 15 7
534 16 6
534 17 4
535 2 1
536 29 1
537 4 8
537 5 23
537 38 30
538 22 1
539 31 5
540 20 1
541 9 1
542 18 24
542 19 44
542 20 16
542 21 1
543 21 1
544 34 1
545 9 8
545 10 3
545 24 2
546 19 1
547 4 1
547 5 12
547 38 12
548 3 1
549 3 1
550 1 2
550 2 15
550 3 28
550 34 35
551 15 1
551 31 1
552 21 1
553 12 1
554 5 8
554 21 1
554 38 4
555 31 2
556 21 30
556 22 30
557 28 4
558 2 1
558 3 4
558 34 8
559 34 1
560 4 8
560 5 38
560 38 41
561 5 1
561 21 1
561 29 12
561 30 1
562 24 1
563 4 1
564 29 1
565 28 1
565 29 1
566 5 1
567 26 4
568 31 4
569 34 1
570 2 1
571 12 2
572 9 2
572 10 8
572 11 2
573 31 1
574 9 1
574 29 1
575 7 1
576 10 1
577 8 2
577 29 1
577 34 1
578 3 1
578 16 1
578 34 1
579 34 1
580 20 1
581 21 6
581 22 4
582 2 5
582 3 6
582 8 1
582 31 1
582 34 4
583 3 1
584 4 1
584 18 90
584 19 168
584 20 10
584 21 1
584 29 1
584 34 1
585 21 15
585 22 6
586 4 9
586 5 32
586 38 41
587 1 1
587 2 21
587 3 39
587 28 1
587 34 37
587 38 1
588 3 1
588 8 1
588 11 1
589 9 1
589 29 10
589 30 1
590 5 1
590 28 2
591 29 4
592 15 1
592 18 5
592 19 7
593 15 1
594 12 1
595 2 1
596 22 1
597 2 4
597 3 3
597 34 6
598 3 1
598 34 1
599 7 1
599 8 1
599 24 1
600 38 1
601 22 1
602 11 2
602 29 6
602 30 1
603 9 1
603 28 5
604 22 1
604 24 1
605 29 3
605 34 2
606 3 1
607 2 2
607 3 4
607 34 3
608 15 4
608 16 3
608 17 2
608 21 1
608 22 1
609 38 2
610 2 1
610 3 1
611 34 1
612 5 1
612 34 1
612 38 1
613 22 1
614 18 1
614 21 1
614 22 2
615 3 1
616 19 1
617 7 1
617 18 10
617 19 15
617 20 8
618 1 1
618 2 22
618 3 27
618 12 5
618 14 5
618 17 1
618 31 6
618 34 47
619 1 1
619 2 8
619 3 29
619 5 1
619 34 39
620 38 1
621 4 1
621 29 2
622 18 5
622 19 5
622 34 1
623 29 1
624 3 1
624 21 7
624 22 4
625 10 1
626 4 2
626 5 11
626 38 14
627 26 1
627 31 1
628 3 1
629 31 1
630 31 15
631 21 1
632 4 1
633 25 1
633 26 2
634 10 2
634 11 3
634 34 1
635 5 1
636 29 1
637 3 1
638 31 1
639 23 1
639 29 3
639 34 1
640 5 1
641 38 1
642 31 4
643 8 1
644 2 1
644 24 5
645 19 1
645 21 10
645 22 7
646 3 1
647 1 2
647 2 24
647 3 23
647 7 1
647 8 1
647 12 1
647 18 1
647 19 2
647 23 1
647 24 7
647 26 1
647 29 6
647 30 1
647 31 4
647 34 46
648 19 1
648 29 14
648 30 3
649 9 85
650 7 1
651 31 1
652 19 1
653 10 1
653 29 7
654 18 1
655 18 38
655 19 53
655 20 18
656 12 28
656 13 1
656 14 34
657 12 3
657 14 3
657 29 1
658 5 1
659 7 1
659 8 1
660 34 1
661 38 1
662 24 7
662 26 3
663 5 1
663 10 1
664 38 1
665 2 8
665 3 14
665 34 19
666 10 1
666 28 1
666 31 3
667 18 2
668 8 1
669 19 1
670 38 1
671 9 1
671 10 1
671 38 1
672 29 2
672 30 1
673 31 3
674 21 1
675 28 1
676 3 1
677 3 1
678 28 3
679 21 1
679 34 1
680 24 1
681 3 1
681 18 1
681 34 1
682 21 1
683 21 10
684 7 12
684 8 17
685 5 1
685 7 4
685 8 10
685 21 1
686 15 5
687 34 1
688 34 1
689 28 3
690 26 2
691 3 1
692 28 1
693 38 1
694 8 1
695 19 1
696 4 1
697 18 1
698 34 1
699 31 1
700 19 1
701 29 22
701 30 1
702 5 1
703 4 6
703 5 19
703 38 18
704 31 1
705 28 1
705 29 17
705 30 3
706 29 21
706 30 2
706 38 1
707 20 1
707 34 1
708 24 1
709 18 1
709 19 1
710 23 1
710 24 1
711 9 1
711 21 7
711 22 10
712 29 2
713 16 1
714 21 1
715 29 1
716 8 1
716 29 3
716 30 1
717 7 1
718 31 1
719 24 4
720 38 1
721 5 1
722 18 2
722 19 5
722 20 2
723 34 1
724 5 4
724 38 3
725 16 1
726 31 3
727 28 1
728 2 1
728 38 1
729 4 2
729 5 9
729 10 2
729 38 5
730 18 3
730 19 1
730 20 1
732 3 2
732 4 1
732 26 1
733 12 1
734 2 1
734 18 1
735 3 3
735 34 5
736 1 1
736 2 16
736 3 27
736 34 41
737 31 5
738 9 4
738 10 5
738 11 5
739 3 1
740 21 1
741 10 1
742 34 1
743 5 4
743 24 1
743 38 2
744 11 1
745 2 1
745 3 2
745 34 1
746 24 1
747 12 15
747 13 2
747 14 12
748 4 5
748 5 17
748 38 17
749 17 1
750 4 1
751 3 1
752 4 1
752 5 5
752 38 7
753 3 1
754 2 1
754 12 23
754 14 9
755 24 1
756 21 1
757 2 2
757 3 1
757 24 1
758 16 1
759 3 1
759 15 1
759 16 1
759 17 3
759 24 6
759 26 1
760 21 1
761 18 14
761 19 15
761 20 2
762 21 11
762 22 4
763 3 2
764 9 4
764 10 11
764 11 7
765 34 1
766 7 2
766 8 6
767 22 1
768 21 1
768 24 2
768 31 1
768 34 1
769 34 1
770 21 6
770 22 1
770 24 1
771 15 1
771 17 1
771 18 1
771 20 1
772 1 1
772 2 10
772 3 11
772 5 1
772 29 1
772 34 14
773 12 5
773 14 7
773 21 12
773 22 5
774 2 2
774 3 1
774 11 2
774 18 1
774 19 1
774 24 2
775 11 1
776 7 4
776 8 2
777 14 1
777 22 1
777 24 6
778 9 3
778 10 7
779 24 1
780 2 1
780 4 6
780 5 36
780 29 1
780 34 1
780 38 43
781 10 1
782 28 1
783 31 1
784 24 5
785 2 1
785 28 7
786 24 1
786 31 3
787 14 1
787 38 1
788 26 1
789 4 5
789 5 12
789 38 9
790 28 9
791 5 1
791 38 3
792 10 1
793 10 1
793 34 1
794 5 1
795 34 1
796 38 1
797 26 6
798 29 4
799 10 1
800 19 1
801 2 1
801 3 1
801 4 1
801 12 1
801 18 1
801 19 1
801 20 1
801 21 1
801 24 1
801 29 1
801 31 1
801 34 1
801 38 2
802 5 1
802 18 1
803 5 1
804 5 1
805 12 1
806 26 1
807 5 1
807 24 18
807 31 2
808 26 5
808 29 1
809 8 1
810 29 1
811 3 1
812 2 1
812 34 1
813 21 1
814 24 6
815 3 3
815 24 1
815 31 5
816 5 3
816 18 1
816 38 2
817 22 3
818 16 1
818 17 1
819 20 1
820 12 7
820 14 4
821 18 1
822 10 2
823 29 2
823 30 1
824 5 1
824 22 1
825 2 1
825 29 3
825 30 1
826 15 1
827 3 1
828 26 1
828 28 1
829 2 1
830 19 1
831 34 1
832 31 3
833 4 5
833 5 38
833 38 25
834 3 1
834 26 8
835 38 1
836 24 15
836 26 2
836 31 5
837 24 1
838 7 11
838 8 14
839 24 1
840 2 1
840 3 3
840 34 6
841 5 1
842 20 1
843 5 2
843 38 1
844 5 1
845 24 1
846 34 1
847 26 1
848 28 2
849 3 2
850 2 1
851 12 1
852 5 1
852 21 30
852 22 21
853 4 14
853 5 51
853 38 49
854 25 1
854 26 10
855 5 1
855 26 3
856 12 5
856 14 5
857 24 1
858 3 1
859 38 1
860 29 8
860 30 1
861 24 1
862 25 1
862 26 4
863 21 1
864 29 7
865 34 1
866 24 2
866 25 1
866 26 1
866 38 1
867 24 5
867 29 2
867 31 3
868 2 7
868 3 11
868 22 1
868 34 12
869 17 1
870 2 2
870 15 1
871 24 1
871 38 1
872 8 1
873 24 2
874 2 1
875 12 3
875 14 6
876 3 1
877 18 1
878 16 1
878 21 2
878 22 3
879 21 1
880 3 1
881 3 1
881 31 4
882 2 1
883 31 17
884 29 5
884 38 1
885 9 1
886 7 1
886 18 1
887 2 2
887 11 1
887 12 1
887 19 2
887 24 1
887 34 1
888 34 1
889 5 1
889 29 2
889 31 1
889 38 4
890 28 3
891 2 26
891 3 29
891 31 7
891 34 24
892 19 1
892 29 12
893 15 1
893 16 2
893 17 1
893 18 1
893 19 1
894 21 1
895 18 13
895 19 35
895 20 15
896 12 1
896 14 2
896 18 1
897 7 7
897 8 17
897 31 10
898 22 1
899 26 1
900 5 1
900 26 9
901 4 1
901 11 1
902 31 8
903 29 1
904 1 2
904 2 30
904 3 52
904 19 1
904 34 55
905 31 20
906 34 1
907 12 9
907 14 5
908 11 1
909 5 1
910 4 1
910 5 8
910 7 4
910 38 25
911 3 1
911 26 1
911 38 1
912 5 1
912 29 13
912 30 2
913 25 1
913 26 2
914 11 1
914 31 1
915 28 1
916 18 1
917 9 10
917 10 26
917 11 14
918 2 1
918 7 1
918 8 1
918 12 1
918 16 1
919 24 7
920 19 1
920 31 8
921 38 1
922 20 1
923 5 1
923 24 1
924 29 1
925 18 28
925 19 43
925 20 8
926 9 1
926 10 2
926 38 1
927 24 1
928 22 1
929 19 1
930 21 11
930 22 6
931 28 2
931 31 10
932 29 12
932 30 1
933 10 4
934 15 3
934 16 6
934 17 7
935 28 2
936 2 1
937 22 1
938 12 5
938 14 1
939 28 3
940 34 1
941 12 1
941 14 1
942 38 1
943 5 1
944 34 1
945 2 4
945 3 6
945 34 5
946 24 9
947 26 1
948 4 3
948 5 6
948 38 6
949 38 1
950 24 1
951 3 1
951 12 1
951 14 1
951 25 1
952 31 4
953 34 1
954 5 1
954 28 2
955 12 5
955 14 1
956 34 1
957 21 1
958 2 1
959 4 1
959 5 10
959 38 10
960 7 1
960 24 1
961 18 1
961 29 5
962 4 1
962 31 1
962 38 2
963 3 1
964 21 7
964 22 2
965 2 1
965 3 5
965 18 13
965 19 10
965 20 7
965 29 6
965 34 13
966 5 1
966 38 2
967 34 1
968 22 1
968 31 10
969 11 1
970 8 1
971 5 1
971 12 1
971 14 2
971 21 3
971 31 1
972 5 1
972 23 1
972 24 7
973 1 3
973 2 19
973 3 18
973 34 43
974 24 4
975 4 6
975 5 19
975 38 24
976 21 1
977 29 24
978 29 1
979 24 1
980 19 1
981 18 23
981 19 35
981 20 6
982 31 1
983 17 1
984 12 1
984 31 9
985 5 10
985 34 1
985 38 8
986 4 9
986 5 55
986 31 12
986 34 1
986 38 41
987 24 1
988 24 20
989 24 1
990 38 1
991 29 1
992 18 1
993 34 1
994 9 1
995 31 1
996 28 2
997 22 1
998 4 5
998 5 31
998 38 36
999 20 1
1000 38 1
1001 8 1
1002 4 1
1002 5 1
1002 38 5
1003 2 1
1003 3 1
1003 12 5
1003 13 1
1003 14 5
1004 24 12
1005 38 1
1006 1 1
1006 2 2
1006 3 3
1006 34 2
1007 8 1
1008 9 15
1008 10 21
1008 11 6
1009 28 5
1009 31 12
1010 5 1
1011 12 9
1011 14 5
1012 22 1
1013 15 1
1013 16 1
1014 12 1
1014 31 1
1015 21 10
1015 22 2
1016 2 7
1016 3 7
1016 34 2
1017 26 4
1017 29 4
1018 19 3
1018 20 2
1019 26 1
1019 28 6
1020 4 1
1020 5 5
1020 38 9
1021 38 1
1022 19 1
1023 20 1
1023 24 31
1024 8 1
1024 29 11
1024 34 1
1025 28 2
1026 9 1
1026 10 2
1026 11 2
1027 2 1
1028 14 1
1029 29 1
1030 24 6
1031 12 1
1032 19 1
1032 28 1
1033 9 3
1033 10 12
1033 11 5
1034 8 1
1035 1 1
1035 2 7
1035 3 14
1035 12 1
1035 19 1
1035 34 21
1036 24 1
1037 24 14
1038 3 1
1038 23 1
1038 24 7
1039 24 3
1040 28 1
1041 18 2
1041 19 7
1041 20 4
1042 10 1
1042 29 7
1042 30 1
1043 9 1
1044 29 6
1045 14 1
1046 4 1
1047 21 1
1048 2 3
1048 3 7
1048 19 1
1048 28 3
1048 29 2
1048 31 3
1048 34 5
1049 19 1
1050 2 6
1050 3 11
1050 34 9
1051 31 9
1052 4 1
1052 5 6
1052 38 8
1053 28 1
1054 24 4
1054 34 1
1055 5 1
1056 2 1
1056 3 2
1057 3 1
1057 11 1
1057 29 1
1058 24 3
1059 17 1
1059 24 1
1060 4 2
1060 5 5
1060 38 4
1061 5 3
1061 10 1
1061 12 1
1061 38 4
1062 15 16
1062 16 9
1062 17 13
1063 3 1
1064 3 1
1064 29 15
1065 12 1
1066 14 1
1066 15 7
1066 16 2
1066 17 6
1067 3 1
1068 29 20
1069 31 19
1070 10 1
1071 21 1
1071 38 1
1072 8 1
1073 38 1
1074 22 1
1074 25 2
1074 26 6
1075 2 1
1076 17 1
1077 7 20
1077 8 24
1078 5 4
1078 38 2
1079 26 1
1080 19 1
1081 15 1
1082 31 9
1083 24 11
1084 21 1
1085 34 1
1086 4 1
1087 18 6
1087 19 8
1087 20 5
1088 29 6
1088 38 1
1089 17 2
1090 18 4
1090 19 3
1090 20 2
1090 34 1
1091 17 1
1092 5 1
1093 1 1
1093 2 7
1093 3 16
1093 29 7
1093 34 13
1094 18 3
1094 19 15
1094 20 3
1095 38 1
1096 34 1
1097 12 1
1098 28 1
1099 9 1
1100 2 10
1100 3 10
1100 19 1
1100 34 14
1101 19 1
1102 10 1
1102 26 6
1103 38 1
1104 28 1
1105 38 1
1106 4 6
1106 5 17
1106 38 28
1107 5 1
1107 7 7
1107 8 12
1108 29 12
1108 30 1
1108 34 1
1109 2 3
1109 3 4
1109 34 9
1110 5 1
1111 9 1
1111 10 4
1111 11 3
1112 2 1
1113 3 1
1114 29 1
1115 28 2
1116 3 1
1116 34 1
1117 4 12
1117 5 34
1117 28 4
1117 38 32
1118 2 3
1118 3 6
1118 34 5
1119 31 11
1120 26 1
1121 18 3
1121 19 4
1121 20 3
1122 7 2
1122 8 2
1122 9 1
1122 12 4
1122 14 1
1122 31 11
1122 38 1
1123 28 2
1124 21 3
1124 22 2
1125 31 1
1126 20 2
1127 14 1
1128 38 1
1129 19 1
1130 26 1
1131 18 1
1132 28 1
1133 24 4
1134 2 1
1134 3 4
1134 26 1
1134 34 7
1135 24 20
1136 24 2
1136 29 2
1137 34 1
1138 29 2
1139 11 1
1140 5 2
1140 38 3
1141 5 1
1141 10 2
1141 11 1
1141 38 1
1142 9 1
1142 10 9
1142 11 3
1143 21 1
1143 26 18
1143 28 4
1144 29 1
1145 3 1
1145 24 9
1146 21 14
1146 22 9
1147 4 6
1147 5 9
1147 38 16
1148 2 2
1148 3 14
1148 22 1
1148 34 13
1149 18 1
1150 7 1
1151 2 2
1151 3 3
1151 10 1
1151 24 3
1151 34 7
1152 26 1
1153 3 1
1154 26 7
1155 5 1
1155 18 1
1155 20 2
1155 24 2
1155 34 1
1155 38 6
1156 7 6
1156 8 10
1157 26 9
1158 4 5
1158 5 21
1158 34 2
1158 38 22
1159 11 1
1160 24 4
1161 12 1
1161 14 1
1162 2 1
1163 20 1
1164 29 7
1165 5 1
1165 18 13
1165 19 14
1165 20 4
1166 34 1
1167 34 1
1168 5 1
1169 21 2
1170 2 3
1170 3 13
1170 8 1
1170 34 13
1171 2 1
1171 3 4
1171 34 9
1172 24 1
1173 16 1
1174 8 1
1175 30 1
1176 4 2
1176 5 9
1176 38 11
1177 4 4
1177 5 15
1177 38 20
1178 5 1
1179 3 1
1179 10 2
1179 28 1
1180 19 1
1180 31 8
1180 34 1
1181 3 1
1182 2 1
1182 4 1
1183 4 1
1183 5 6
1183 9 1
1183 38 9
1184 23 1
1184 24 6
1185 34 1
1186 21 17
1186 22 8
1187 18 1
1187 34 1
1187 38 1
1188 29 3
1189 2 4
1189 3 12
1189 26 3
1189 34 19
1190 34 1
1191 14 1
1191 24 10
1192 24 12
1193 24 6
1193 25 1
1194 3 2
1194 24 1
1195 24 1
1195 28 3
1196 3 1
1197 2 16
1197 3 19
1197 22 1
1197 34 20
1198 29 3
1199 20 1
1200 2 1
1201 2 11
1201 3 13
1201 4 2
1201 5 10
1201 34 14
1201 38 11
1202 9 1
1203 38 1
1204 29 1
1204 31 1
1205 24 1
1206 16 1
1207 24 2
1208 26 5
1209 31 2
1210 2 7
1210 3 11
1210 34 27
1211 2 9
1211 3 15
1211 5 1
1211 17 1
1211 34 30
1212 31 3
1213 23 1
1214 17 1
1215 5 1
1215 12 2
1216 18 1
1216 21 1
1217 3 1
1218 2 1
1218 22 1
1218 38 1
1219 2 2
1220 34 1
1221 9 3
1221 10 7
1221 11 5
1222 29 1
1222 38 1
1223 10 1
1223 20 1
1224 21 8
1224 22 6
1225 31 1
1226 5 1
1227 18 36
1227 19 30
1227 20 8
1228 29 1
1228 31 3
1229 3 1
1230 18 2
1230 19 3
1230 21 1
1231 3 1
1232 24 1
1233 28 1
1234 21 1
1234 22 2
1234 38 1
1235 12 2
1235 18 1
1236 19 1
1237 4 1
1238 28 10
1239 3 1
1239 15 1
1239 16 1
1239 17 1
1239 24 1
1239 38 1
1240 5 3
1240 10 1
1240 38 3
1241 21 1
1241 26 2
1242 2 1
1242 38 1
1243 23 1
1243 24 9
1244 15 1
1245 12 1
1246 2 1
1247 5 1
1248 15 7
1248 16 4
1248 17 4
1249 2 1
1249 24 1
1250 28 1
1250 38 1
1251 18 8
1251 19 17
1252 4 1
1252 5 7
1252 18 1
1252 38 6
1253 22 1
1254 10 1
1255 24 1
1256 5 1
1256 29 3
1257 3 1
1257 24 2
1258 34 1
1259 3 1
1259 14 1
1259 20 1
1259 24 1
1259 28 2
1260 34 1
1261 29 1
1262 19 1
1262 34 1
1263 25 1
1263 26 1
1264 21 1
1265 28 1
1265 34 1
1266 2 6
1266 3 3
1266 28 1
1266 34 1
1267 2 1
1267 3 1
1267 22 2
1267 34 1
1268 26 1
1268 31 2
1269 15 4
1269 16 2
1269 17 2
1270 4 1
1271 2 1
1272 1 1
1272 2 8
1272 3 2
1272 34 12
1273 3 1
1274 10 1
1275 38 1
1276 15 6
1276 16 1
1276 17 1
1277 9 9
1277 10 23
1277 11 16
1277 21 12
1277 22 8
1278 34 1
1279 4 1
1279 28 4
1280 3 1
1280 29 15
1280 30 1
1281 29 1
1281 30 1
1282 20 1
1282 24 6
1283 2 1
1283 3 1
1283 29 6
1283 34 9
1284 29 1
1285 5 1
1286 3 1
1287 2 1
1288 24 2
1289 29 7
1289 34 1
1290 34 1
1291 19 1
1292 22 1
1293 18 5
1293 19 5
1293 20 1
1294 34 1
1295 4 3
1295 5 27
1295 38 28
1296 34 1
1297 5 1
1297 18 1
1297 34 1
1298 24 1
1299 1 1
1299 4 12
1299 5 26
1299 34 1
1299 38 42
1300 4 3
1300 5 20
1300 38 26
1301 19 1
1302 28 2
1303 10 1
1304 3 1
1304 28 3
1304 31 3
1305 5 1
1305 29 1
1306 17 1
1306 29 3
1307 2 4
1307 3 7
1307 21 1
1307 34 9
1308 3 1
1308 26 6
1309 5 1
1310 34 2
1311 18 48
1311 19 49
1311 20 29
1312 38 1
1313 9 15
1313 10 19
1313 11 17
1314 19 1
1315 29 4
1315 34 1
1316 9 7
1316 10 12
1316 11 7
1317 12 11
1317 14 6
1318 15 1
1318 16 3
1318 17 1
1319 13 1
1320 11 1
1321 12 1
1322 24 1
1322 29 1
1322 34 1
1323 26 2
1324 24 4
1325 3 1
1325 28 3
1326 1 2
1326 2 10
1326 3 14
1326 34 25
1327 5 1
1328 19 1
1328 24 20
1329 21 19
1329 22 12
1329 24 1
1330 31 5
1331 29 3
1331 30 1
1332 12 1
1333 29 1
1334 3 1
1334 8 1
1334 10 1
1335 5 1
1335 31 14
1335 32 2
1335 38 1
1336 21 5
1336 22 9
1337 18 1
1337 29 6
1338 38 1
1339 28 2
1340 4 3
1340 5 7
1340 38 16
1341 7 4
1341 8 7
1342 3 1
1343 13 1
1344 15 1
1345 2 9
1345 3 18
1345 34 23
1346 38 2
1347 24 21
1348 1 1
1348 2 5
1348 3 8
1348 34 2
1349 21 3
1349 22 3
1350 5 1
1351 29 1
1352 14 1
1353 5 1
1354 15 3
1354 16 1
1354 17 2
1354 38 2
1355 4 1
1356 2 9
1356 3 18
1356 34 17
1357 3 1
1358 4 1
1358 5 9
1358 8 1
1358 38 12
1359 14 1
1360 29 5
1361 21 33
1361 22 24
1362 1 1
1362 34 1
1363 3 1
1364 19 1
1365 29 1
1366 34 1
1367 15 1
1368 18 1
1368 34 1
1369 2 5
1369 3 23
1369 34 17
1370 24 24
1371 15 5
1371 16 4
1371 17 4
1371 38 1
1372 2 4
1372 3 3
1372 34 10
1373 11 1
1374 18 4
1374 19 4
1374 20 2
1374 38 1
1375 15 1
1376 10 1
1377 38 1
1378 18 1
1379 8 1
1379 9 1
1379 10 2
1380 2 5
1380 3 7
1380 34 19
1381 28 5
1382 29 5
1383 31 1
1384 24 1
1384 34 1
1385 28 1
1386 24 11
1387 24 1
1388 34 1
1389 4 1
1389 10 1
1389 26 1
1390 34 1
1391 24 1
1392 24 11
1393 31 7
1394 21 1
1394 29 1
1395 15 4
1395 17 1
1396 3 1
1396 28 5
1397 24 1
1398 11 1
1399 38 2
1400 14 2
1400 34 1
1401 3 1
1402 29 1
1403 38 1
1404 38 1
1405 24 4
1406 8 1
1407 29 1
1408 22 1
1409 34 1
1410 4 3
1410 5 8
1410 38 10
1411 29 1
1412 2 3
1412 3 6
1412 34 5
1413 26 3
1414 15 3
1414 16 3
1414 17 6
1414 38 1
1415 20 1
1416 34 1
1417 2 1
1418 34 1
1419 7 1
1419 24 1
1420 29 1
1421 14 1
1421 29 13
1421 34 1
1422 38 1
1423 12 1
1424 12 1
1425 14 1
1426 34 1
1427 3 1
1427 23 1
1427 24 11
1428 16 1
1429 22 1
1429 24 1
1430 18 22
1430 19 22
1430 20 6
1431 20 1
1431 24 1
1431 25 2
1431 26 9
1432 26 8
1433 4 1
1433 5 3
1433 12 1
1433 29 8
1433 30 1
1433 38 4
1434 19 1
1435 24 1
1436 24 9
1437 25 1
1437 26 2
1437 34 1
1438 4 6
1438 5 29
1438 38 21
1439 11 1
1440 15 1
1441 18 1
1442 3 1
1442 7 6
1442 8 6
1442 26 2
1443 9 4
1443 10 3
1443 11 4
1444 18 1
1445 2 1
1446 22 1
1447 24 14
1448 5 1
1449 21 16
1449 22 9
1450 24 1
1451 7 1
1451 26 1
1452 12 1
1453 1 1
1453 2 16
1453 3 15
1453 34 33
1454 7 3
1454 8 4
1455 34 1
1456 4 1
1456 5 2
1456 38 5
1457 18 25
1457 19 31
1457 20 12
1458 34 1
1459 18 7
1459 19 13
1459 20 7
1460 5 1
1460 25 1
1460 31 1
1461 38 1
1462 38 1
1463 24 1
1464 2 13
1464 3 20
1464 29 3
1464 34 26
1465 29 1
1465 30 1
1466 18 7
1466 19 3
1466 20 4
1467 25 1
1468 30 1
1469 2 5
1469 3 4
1469 34 10
1470 7 1
1470 8 2
1470 24 1
1471 3 1
1472 17 1
1472 24 1
1473 20 1
1473 31 1
1474 24 1
1475 34 1
1476 3 1
1477 3 1
1478 29 1
1479 3 1
1480 24 1
1481 26 2
1482 12 1
1482 14 1
1483 28 4
1484 4 1
1485 15 1
1485 16 1
1486 2 1
1486 10 1
1487 31 1
1488 8 1
1489 20 1
1490 9 6
1490 10 21
1490 11 13
1490 31 1
1491 8 1
1491 28 1
1492 2 2
1492 3 8
1492 34 12
1493 34 3
1494 2 10
1494 3 23
1494 24 22
1494 28 2
1494 34 35
1495 3 1
1496 34 1
1497 2 4
1497 3 48
1497 18 19
1497 19 21
1497 20 5
1497 31 16
1497 34 58
1498 31 1
1499 9 1
1500 28 1
1501 3 1
1502 5 1
1502 17 1
1503 29 6
1503 38 1
1504 3 1
1505 20 1
1505 21 1
1505 31 1
1506 14 3
1507 16 1
1508 24 9
1509 29 1
1510 23 1
1510 24 21
1511 24 1
1512 8 1
1513 2 22
1513 3 23
1513 31 8
1513 34 40
1514 2 6
1514 3 7
1514 24 2
1514 28 1
1514 29 2
1514 34 6
1515 10 1
1516 9 1
1516 24 15
1517 3 1
1517 14 1
1518 19 1
1519 24 1
1520 12 1
1521 3 1
1522 22 1
1523 31 1
1524 3 3
1524 31 1
1524 34 4
1525 11 1
1525 21 1
1525 22 3
1525 26 4
1526 18 1
1527 26 6
1528 31 1
1529 24 1
1530 29 1
1531 5 1
1531 18 9
1531 19 9
1531 20 6
1531 38 1
1532 19 1
1533 34 1
1534 38 1
1535 29 1
1536 7 7
1536 8 8
1537 34 1
1538 3 2
1538 34 1
1539 14 1
1540 21 1
1541 2 1
1541 3 1
1542 5 1
1542 26 1
1542 28 1
1543 29 2
1544 31 2
1545 14 1
1546 5 1
1546 38 1
1547 2 6
1547 3 26
1547 34 30
1548 7 1
1549 2 14
1549 3 24
1549 34 31
1550 3 1
1551 24 1
1552 2 1
1552 3 5
1552 34 4
1553 8 2
1553 24 10
1554 12 8
1554 14 6
1555 29 1
1555 30 1
1555 38 1
1556 29 7
1556 30 1
1557 29 1
1558 29 6
1559 26 6
1560 22 1
1561 34 1
1562 31 8
1563 28 1
1564 12 4
1564 14 5
1564 34 1
1565 22 1
1566 8 1
1567 12 1
1568 26 3
1569 2 1
1569 27 1
1569 28 2
1570 15 1
1570 31 1
1571 12 46
1571 14 42
1571 29 1
1572 14 1
1573 34 1
1574 5 1
1575 24 1
1576 7 2
1577 34 1
1578 3 1
1579 17 1
1579 18 1
1580 5 1
1580 28 2
1580 38 1
1581 3 2
1581 5 1
1581 21 1
1581 28 1
1582 12 1
1582 20 1
1583 14 1
1584 9 1
1584 10 2
1584 34 1
1585 2 1
1586 29 2
1587 19 1
1588 12 3
1588 14 5
1589 3 1
1589 4 1
1589 5 3
1589 38 5
1590 3 1
1590 19 1
1591 12 35
1591 13 1
1591 14 22
1592 7 1
1592 8 3
1593 38 1
1594 16 1
1595 19 1
1596 2 4
1596 3 14
1596 15 1
1596 18 1
1596 34 10
1596 38 1
1597 26 1
1598 19 1
1599 29 4
1599 30 1
1600 15 1
1601 24 6
1601 26 3
1602 20 1
1603 38 1
1604 7 12
1604 8 11
1605 7 1
1605 8 1
1606 26 1
1607 1 1
1607 2 4
1607 3 9
1607 34 12
1608 18 1
1608 19 1
1608 28 1
1608 29 1
1609 38 1
1610 34 1
1611 28 1
1611 29 1
1612 31 1
1613 9 1
1613 10 1
1614 10 1
1615 10 1
1616 7 1
1617 34 1
1618 21 1
1619 19 1
1620 3 8
1620 12 1
1620 29 7
1620 34 5
1621 24 6
1622 7 1
1623 7 1
1624 4 1
1624 5 6
1624 38 6
1625 28 1
1626 12 1
1626 21 1
1627 18 17
1627 19 16
1627 20 1
1628 34 1
1629 9 16
1629 10 31
1629 11 16
1630 2 2
1630 3 1
1630 21 1
1630 34 2
1631 2 4
1631 3 4
1631 34 2
1632 21 1
1632 25 1
1632 26 12
1633 22 1
1634 3 1
1635 31 1
1636 3 1
1637 2 13
1637 3 33
1637 34 37
1638 4 1
1639 11 15
1639 31 4
1640 11 1
1641 28 1
1642 34 1
1643 28 2
1644 12 16
1644 14 7
1644 18 1
1644 21 2
1645 21 1
1646 12 2
1646 14 1
1647 34 1
1648 3 1
1649 22 1
1650 11 1
1651 26 1
1651 29 12
1651 30 2
1652 12 4
1652 14 5
1653 7 9
1653 8 18
1654 3 2
1655 28 1
1656 24 12
1657 28 1
1658 24 1
1659 5 1
1659 18 4
1659 19 4
1659 20 3
1659 29 1
1660 21 5
1660 22 3
1661 38 1
1662 19 1
1662 24 1
1663 5 1
1664 18 1
1665 19 1
1666 5 1
1667 2 42
1667 3 41
1667 24 1
1667 34 68
1668 38 1
1669 34 1
1670 8 1
1670 12 39
1670 13 2
1670 14 27
1671 24 1
1672 3 1
1672 24 15
1673 29 1
1674 3 1
1675 18 1
1676 29 4
1677 8 1
1678 28 2
1679 3 1
1679 28 2
1680 5 1
1681 24 1
1682 34 1
1683 9 1
1683 31 4
1684 14 19
1685 2 1
1686 10 1
1687 2 1
1688 9 11
1688 10 23
1688 11 11
1689 12 2
1689 14 2
1689 21 9
1689 22 6
1690 2 1
1690 3 2
1690 18 1
1690 24 1
1690 34 4
1691 29 1
1692 4 8
1692 5 30
1692 24 1
1692 30 1
1692 38 26
1693 24 1
1694 1 1
1694 2 3
1694 3 10
1694 34 13
1695 3 1
1695 29 7
1696 21 1
1697 22 1
1698 20 1
1699 24 1
1699 34 1
1700 2 1
1700 21 1
1701 28 4
1702 4 1
1702 5 5
1702 19 1
1702 38 5
1703 10 1
1704 2 1
1705 34 2
1706 12 3
1707 31 25
1708 12 1
1709 5 1
1709 18 1
1709 24 36
1710 38 1
1711 12 4
1712 18 1
1713 7 1
1714 3 1
1715 3 1
1715 24 1
1716 21 3
1716 22 3
1716 24 12
1717 29 1
1718 18 3
1718 19 1
1719 2 15
1719 3 13
1719 5 1
1719 21 1
1719 34 14
1720 11 1
1720 12 1
1721 3 1
1722 18 1
1723 18 42
1723 19 49
1723 20 17
1724 19 1
1725 3 1
1726 29 1
1727 9 3
1727 10 1
1727 11 2
1727 38 1
1728 3 1
1729 21 1
1730 38 1
1731 4 3
1731 5 18
1731 26 2
1731 38 30
1732 38 1
1733 5 1
1734 3 1
1734 4 3
1734 5 5
1734 38 8
1735 3 1
1736 29 14
1736 30 1
1737 24 1
1738 21 1
1738 34 1
1739 1 1
1739 2 5
1739 3 10
1739 9 1
1739 34 6
1740 29 1
1741 2 1
1741 4 4
1741 5 17
1741 34 1
1741 38 21
1742 34 1
1743 24 3
1744 9 7
1744 10 11
1744 11 7
1744 34 1
1746 24 7
1747 22 1
1748 3 1
1748 31 12
1749 5 1
1750 4 2
1750 5 3
1750 34 1
1750 38 6
1751 31 1
1752 14 1
1753 38 1
1754 2 1
1754 3 5
1754 34 2
1755 22 1
1756 5 1
1756 24 9
1756 26 1
1757 34 1
1758 21 1
1758 29 3
1759 12 18
1759 13 1
1759 14 8
1759 34 1
1760 34 1
1761 2 13
1761 3 11
1761 34 23
1762 5 5
1762 38 2
1763 38 1
1764 21 1
1765 24 1
1766 17 1
1766 24 6
1766 38 1
1767 3 1
1767 4 4
1767 5 12
1767 38 14
1768 19 1
1768 20 2
1769 24 8
1770 9 1
1771 31 3
1772 29 1
1773 24 1
1774 2 1
1775 3 1
1775 18 3
1775 19 13
1775 20 5
1776 10 1
1778 9 2
1778 10 4
1778 11 4
1778 21 1
1778 24 1
1778 34 1
1779 34 1
1780 8 1
1781 10 1
1782 14 1
1783 34 1
1784 12 1
1784 14 5
1784 34 1
1785 2 8
1785 3 6
1785 29 6
1785 34 6
1786 31 2
1787 2 14
1787 3 41
1787 34 69
1788 38 1
1789 29 2
1789 34 1
1790 19 1
1791 2 1
1792 31 1
1793 31 2
1794 34 1
1795 9 1
1796 24 9
1797 18 34
1797 19 43
1797 20 13
1798 16 1
1798 17 1
1799 28 1
1800 4 5
1800 5 23
1800 38 18
1801 19 1
1802 7 1
1803 5 1
1804 2 2
1804 3 3
1804 27 1
1804 28 4
1804 34 8
1805 21 1
1805 22 1
1806 5 1
1806 18 1
1806 19 1
1806 29 2
1807 18 1
1807 28 8
1808 19 1
1809 18 12
1809 19 24
1809 20 10
1810 3 2
1810 8 1
1810 21 10
1810 22 1
1810 24 1
1810 34 1
1811 3 1
1812 38 4
1813 7 1
1814 2 9
1814 3 20
1814 15 1
1814 34 13
1815 18 1
1816 5 1
1817 14 2
1817 24 1
1818 34 1
1819 24 14
1820 24 1
1821 34 1
1822 15 3
1822 16 1
1822 17 3
1823 2 1
1823 34 2
1824 17 1
1825 2 1
1826 18 1
1827 24 10
1828 18 40
1828 19 54
1828 20 23
1828 29 1
1829 38 2
1830 2 2
1830 3 1
1830 34 6
1831 19 1
1832 14 1
1833 38 1
1834 1 1
1834 2 26
1834 3 32
1834 24 10
1834 34 44
1835 26 1
1835 28 4
1836 3 1
1837 21 1
1838 3 1
1839 20 1
1840 34 1
1841 8 1
1842 24 5
1843 7 2
1843 8 1
1843 12 1
1844 38 1
1845 29 8
1845 30 1
1846 3 1
1847 2 3
1847 3 2
1847 24 2
1847 34 5
1848 12 1
1849 18 8
1849 19 20
1849 20 7
1849 24 1
1850 18 1
1850 20 1
1851 29 9
1851 30 3
1852 19 1
1853 38 1
1854 18 52
1854 19 64
1854 20 25
1855 10 1
1856 3 1
1856 26 1
1857 12 4
1857 14 2
1857 18 1
1857 24 1
1857 34 1
1858 29 2
1859 5 1
1860 4 9
1860 5 66
1860 12 24
1860 13 1
1860 14 10
1860 38 72
1861 21 1
1862 12 1
1862 18 34
1862 19 40
1862 20 17
1863 9 1
1864 3 1
1864 24 10
1865 34 1
1866 34 1
1867 34 1
1868 24 1
1869 38 1
1870 28 1
1871 34 1
1872 18 3
1872 19 4
1872 20 1
1873 38 1
1874 15 1
1874 17 1
1875 4 2
1875 5 2
1875 38 1
1876 29 1
1876 34 1
1876 38 1
1877 3 1
1878 34 1
1879 17 1
1879 24 1
1879 34 1
1880 18 1
1881 3 1
1882 24 4
1883 19 1
1884 21 4
1884 22 2
1885 2 1
1886 3 1
1886 4 1
1886 5 1
1886 11 1
1886 16 1
1886 18 1
1886 21 2
1887 4 1
1887 24 1
1888 34 1
1889 12 1
1890 17 1
1891 34 1
1892 34 1
1893 10 1
1894 2 11
1894 3 24
1894 34 32
1895 38 1
1896 16 1
1897 24 15
1898 34 1
1899 9 9
1899 10 18
1899 11 6
1900 2 1
1900 3 6
1900 22 1
1900 34 13
1901 18 4
1901 19 6
1901 20 3
1901 29 1
1902 26 5
1903 4 1
1903 5 2
1903 38 8
1904 3 1
1905 15 1
1906 3 1
1907 19 1
1908 23 1
1908 24 3
1908 26 4
1909 9 1
1910 5 2
1910 8 1
1910 18 4
1910 19 8
1910 20 2
1911 2 1
1912 31 5
1912 34 2
1913 24 12
1914 18 30
1914 19 24
1914 20 13
1915 30 1
1916 24 1
1917 12 9
1917 14 4
1917 18 9
1917 19 10
1917 20 2
1918 18 1
1919 1 2
1919 2 13
1919 3 20
1919 10 1
1919 14 1
1919 34 21
1920 3 1
1920 20 1
1920 34 1
1921 38 1
1922 4 1
1922 5 11
1922 38 14
1923 24 18
1923 34 1
1924 5 1
1925 3 1
1925 19 1
1926 2 3
1926 3 5
1926 34 2
1927 4 2
1927 5 5
1927 38 8
1928 12 5
1928 14 4
1929 3 1
1930 10 1
1930 11 1
1931 3 4
1931 34 2
1932 21 1
1933 3 1
1933 5 1
1934 5 1
1935 2 1
1935 8 1
1936 13 1
1937 15 28
1937 16 11
1937 17 16
1938 15 1
1939 24 14
1940 34 1
1941 29 1
1941 34 1
1942 28 7
1943 12 1
1943 31 2
1944 7 4
1944 8 5
1944 19 2
1944 20 1
1945 3 2
1946 8 1
1947 38 1
1948 2 2
1949 23 1
1949 24 14
1950 21 1
1951 31 7
1951 34 1
1952 9 1
1952 10 6
1952 11 1
1952 38 1
1953 24 1
1954 29 4
1955 12 1
1955 14 1
1955 21 2
1956 11 1
1956 18 1
1956 19 5
1956 20 1
1956 21 3
1956 24 1
1957 24 1
1958 15 1
1958 24 10
1958 34 1
1959 2 1
1959 11 1
1959 17 1
1959 34 1
1960 29 4
1961 5 1
1962 12 5
1962 14 3
1962 38 1
1963 22 1
1964 38 1
1965 5 1
1966 18 1
1967 38 1
1968 2 1
1968 3 1
1968 4 10
1968 5 47
1968 38 40
1969 13 1
1969 24 6
1969 28 1
1970 11 1
1971 24 1
1972 3 1
1972 31 1
1972 34 1
1973 11 1
1974 31 1
1975 24 5
1976 28 1
1977 29 10
1977 30 1
1978 29 1
1979 21 1
1980 29 11
1981 2 1
1981 3 1
1982 23 1
1982 24 16
1982 26 1
1982 34 2
1983 31 1
1984 24 2
1985 29 1
1986 22 1
1987 24 1
1988 26 3
1988 31 6
1988 34 1
1989 4 4
1989 5 22
1989 38 22
1990 3 1
1990 18 34
1990 19 42
1990 20 14
1990 21 21
1990 22 12
1991 24 3
1991 26 2
1991 34 1
1992 3 1
1993 12 36
1993 13 1
1993 14 13
1994 21 1
1995 9 11
1995 10 9
1995 11 7
1995 14 1
1996 15 11
1996 16 7
1996 17 5
1997 12 1
1998 24 1
1999 4 2
1999 5 7
1999 18 1
1999 19 5
1999 20 4
1999 38 3
2000 2 3
2000 3 10
2000 34 11
2001 10 1
2002 8 1
2002 24 1
2003 5 1
2003 38 1
2004 2 1
2005 20 1
2006 9 11
2006 10 17
2006 11 5
2006 34 1
2007 2 1
2007 4 7
2007 5 21
2007 38 27
2008 15 1
2009 12 1
2010 38 1
2011 10 4
2011 11 1
2011 22 3
2012 1 1
2012 2 18
2012 3 17
2012 34 26
2013 34 1
2014 1 1
2014 2 2
2014 3 2
2014 28 4
2014 30 1
2014 34 2
2015 31 5
2016 21 1
2017 14 1
2018 3 1
2019 31 7
2020 25 1
2020 26 6
2021 34 1
2022 27 1
2022 28 1
2023 1 1
2023 2 15
2023 3 17
2023 5 1
2023 29 1
2023 34 36
2024 24 1
2025 28 3
2026 25 1
2026 26 8
2027 21 1
2028 8 1
2028 26 1
2029 34 1
2030 14 3
2031 7 2
2031 8 2
2031 12 1
2032 2 1
2033 4 2
2033 5 28
2033 38 29
2034 4 4
2034 5 18
2034 19 1
2034 38 17
2035 31 2
2036 21 1
2037 3 1
2038 10 1
2038 24 7
2039 12 11
2039 14 7
2040 11 1
2041 19 1
2042 19 1
2043 2 2
2043 3 8
2043 34 8
2044 34 1
2045 3 1
2046 4 2
2046 5 2
2046 38 8
2047 12 3
2047 14 3
2048 1 1
2048 2 16
2048 3 27
2048 34 32
2048 38 1
2049 3 1
2050 1 1
2050 2 13
2050 3 15
2050 34 19
2051 15 12
2051 16 8
2051 17 15
2051 21 24
2051 22 14
2052 34 1
2053 29 1
2054 19 1
2055 2 11
2055 3 9
2055 18 1
2055 34 17
2056 19 1
2057 5 1
2058 3 1
2059 2 1
2060 21 5
2060 22 1
2061 24 13
2062 19 1
2063 10 1
2064 2 1
2064 28 3
2065 29 3
2066 9 1
2067 3 1
2067 5 1
2067 18 10
2067 19 11
2067 20 4
2068 3 1
2068 22 1
2069 28 2
2070 3 1
2071 18 43
2071 19 45
2071 20 10
2072 21 1
2073 34 1
2074 21 15
2074 22 9
2075 28 1
2075 31 18
2076 18 15
2076 19 20
2076 20 6
2077 24 1
2078 19 1
2079 18 21
2079 19 29
2079 20 12
2080 26 1
2081 28 1
2082 25 1
2082 26 1
2083 20 1
2084 24 4
2085 1 1
2085 2 23
2085 3 37
2085 12 1
2085 31 1
2085 34 39
2086 2 1
2087 34 1
2088 34 1
2089 2 1
2090 19 1
2091 1 1
2091 20 1
2092 2 1
2093 15 1
2093 20 2
2093 21 1
2094 2 5
2094 3 7
2094 34 10
2095 1 1
2095 2 13
2095 3 30
2095 34 30
2096 34 1
2097 2 12
2097 3 33
2097 34 31
2097 38 1
2098 29 12
2098 30 2
2099 4 1
2099 5 2
2099 38 2
2100 4 1
2100 5 24
2100 38 37
2101 31 8
2102 3 1
2103 34 1
2104 34 1
2105 31 1
2105 34 1
2106 9 14
2106 10 30
2106 11 17
2107 12 14
2107 14 8
2108 11 1
2109 3 1
2110 18 7
2110 19 12
2110 20 5
2111 2 9
2111 3 16
2111 34 22
2112 2 24
2112 3 41
2112 34 60
2113 5 1
2113 21 6
2113 22 1
2114 29 5
2114 30 1
2115 24 1
2116 12 9
2116 14 5
2116 15 3
2116 16 2
2116 17 3
2117 19 1
2118 34 1
2119 5 16
2119 38 22
2120 28 3
2121 5 1
2121 38 1
2122 3 1
2123 31 2
2123 33 1
2124 31 1
2125 7 8
2125 8 10
2126 5 1
2126 24 1
2127 8 1
2127 31 9
2128 24 1
2129 5 9
2129 38 3
2130 38 1
2131 24 5
2132 28 3
2132 34 1
2133 24 1
2134 8 1
2134 22 1
2134 28 1
2134 29 4
2134 30 1
2135 18 1
2135 24 1
2135 26 1
2136 22 1
2137 21 29
2137 22 20
2138 5 1
2139 21 1
2139 31 19
2139 34 1
2140 29 4
2140 30 2
2141 12 34
2141 13 1
2141 14 17
2142 29 1
2143 24 1
2144 3 1
2144 15 16
2144 16 5
2144 17 13
2145 4 1
2145 5 22
2145 34 1
2145 38 13
2146 12 23
2146 14 8
2146 28 1
2146 29 1
2147 2 4
2147 3 9
2147 34 23
2148 5 3
2149 8 2
2150 34 1
2151 21 17
2151 22 8
2151 34 1
2152 19 1
2153 26 1
2154 24 10
2155 8 1
2156 3 1
2156 4 2
2156 5 15
2156 38 12
2157 22 1
2158 1 1
2158 2 17
2158 3 17
2158 34 23
2159 4 2
2159 5 9
2159 19 1
2159 38 8
2160 31 5
2161 34 4
2162 19 1
2163 21 2
2163 22 10
2164 3 1
2165 34 1
2166 20 1
2167 1 1
2167 2 5
2167 3 8
2167 34 13
2168 24 5
2168 26 2
2169 2 1
2169 15 3
2169 17 1
2170 4 2
2170 5 11
2170 21 1
2170 22 1
2170 34 1
2170 38 18
2171 3 1
2171 21 1
2171 26 1
2171 29 2
2171 30 1
2172 15 27
2172 16 16
2172 17 11
2173 21 1
2174 38 1
2175 10 1
2176 38 1
2177 18 1
2177 21 1
2178 31 3
2178 38 1
2179 2 1
2179 3 5
2179 24 1
2179 34 1
2180 38 1
2181 24 1
2182 4 1
2183 3 2
2183 5 3
2184 19 2
2185 14 1
2186 8 1
2186 12 11
2186 14 4
2187 12 11
2187 14 4
2188 31 13
2189 18 12
2189 19 20
2189 20 12
2190 4 6
2190 5 15
2190 21 1
2190 31 1
2190 38 20
2191 2 21
2191 3 26
2191 34 26
2192 25 1
2192 26 3
2193 3 1
2194 22 1
2195 28 7
2196 18 10
2196 19 12
2196 20 7
2197 2 16
2197 3 20
2197 34 37
2198 34 1
2199 3 1
2199 17 1
2199 28 4
2200 5 1
2201 2 6
2201 3 10
2201 34 20
2202 3 1
2202 38 1
2203 2 1
2204 28 1
2205 5 1
2206 22 1
2207 34 1
2208 24 10
2209 15 1
2210 18 9
2210 19 17
2210 20 12
2210 24 1
2211 24 1
2212 4 11
2212 5 23
2212 38 34
2213 12 1
2213 18 1
2213 22 1
2213 34 1
2214 2 9
2214 3 16
2214 34 25
2215 5 1
2215 18 1
2216 8 1
2217 2 1
2217 31 1
2218 2 1
2219 20 1
2219 29 7
2220 34 1
2221 38 1
2222 16 1
2222 19 1
2223 21 3
2223 22 2
2224 4 2
2224 5 13
2224 38 14
2225 21 4
2225 22 3
2226 26 3
2227 2 1
2227 3 1
2227 5 1
2227 29 2
2227 34 1
2228 19 1
2228 21 13
2228 22 8
2229 38 1
2230 28 3
2231 34 1
2231 38 1
2232 14 1
2233 38 1
2234 16 2
2234 17 2
2234 26 1
2235 12 3
2235 14 2
2236 10 1
2237 2 1
2237 31 4
2238 4 1
2238 5 14
2238 11 1
2238 26 22
2238 38 13
2239 29 36
2239 30 11
2240 24 6
2241 3 1
2241 7 4
2241 8 8
2242 29 1
2243 18 1
2244 29 1
2245 5 1
2245 19 1
2245 28 2
2246 21 1
2246 24 5
2247 9 1
2248 2 8
2248 3 16
2248 34 28
2249 19 1
2250 24 1
2251 2 1
2251 3 3
2251 5 1
2251 34 3
2252 21 3
2252 22 3
2253 2 11
2253 3 10
2253 29 1
2253 34 15
2254 31 1
2255 4 1
2255 38 2
2256 1 1
2256 2 19
2256 3 22
2256 34 41
2257 4 1
2257 5 1
2257 38 1
2258 15 1
2259 28 1
2259 34 2
2260 2 2
2260 3 2
2260 34 4
2261 19 1
2262 24 1
2263 5 1
2264 34 1
2265 10 1
2266 26 4
2267 14 1
2268 3 1
2269 34 1
2270 2 1
2270 3 2
2270 34 5
2271 12 1
2272 21 1
2273 22 1
2274 19 1
2275 15 1
2276 24 1
2277 18 1
2278 5 1
2278 18 12
2278 19 20
2278 20 3
2279 20 1
2280 2 1
2280 3 3
2280 34 3
2281 2 4
2281 3 6
2281 18 1
2281 34 11
2282 19 1
2283 21 20
2283 22 11
2284 31 1
2285 38 1
2286 12 1
2287 2 3
2287 3 7
2287 34 7
2288 3 1
2289 38 1
2290 3 1
2290 9 1
2290 10 1
2290 18 2
2290 19 1
2290 22 1
2290 31 2
2290 38 1
2291 22 1
2292 20 1
2292 24 1
2292 26 1
2293 24 9
2293 38 1
2294 9 4
2294 10 6
2294 11 6
2294 28 1
2295 10 1
2295 24 21
2295 28 2
2296 23 1
2296 24 10
2297 34 1
2298 4 1
2298 7 6
2298 8 14
2298 24 1
2299 1 1
2299 2 9
2299 3 11
2299 34 11
2300 28 10
2301 24 1
2302 21 1
2303 31 2
2304 24 2
2305 3 1
2306 31 1
2307 24 1
2308 21 1
2308 34 1
2309 38 1
2310 11 1
2310 24 10
2311 16 1
2312 5 1
2312 21 3
2312 22 5
2313 25 1
2313 26 6
2314 24 1
2315 24 1
2315 28 3
2316 3 1
2316 7 1
2316 18 1
2316 28 1
2317 3 1
2318 28 1
2319 11 1
2320 8 1
2321 7 21
2321 8 34
2322 26 3
2323 34 1
2324 4 8
2324 5 34
2324 34 1
2324 38 24
2325 18 2
2325 19 2
2326 2 12
2326 3 7
2326 29 2
2326 34 9
2327 18 8
2327 19 18
2327 20 7
2328 31 5
2329 34 1
2330 31 11
2331 19 1
2332 3 1
2332 18 1
2332 27 1
2332 28 4
2332 38 1
2333 8 1
2333 24 4
2334 5 1
2335 28 3
2336 3 1
2337 1 2
2337 2 7
2337 3 9
2337 34 10
2338 4 1
2338 29 11
2338 30 3
2339 38 1
2340 19 1
2341 4 1
2341 5 12
2341 38 3
2342 38 2
2343 12 1
2344 19 1
2345 2 1
2345 14 1
2346 38 1
2347 4 5
2347 5 11
2347 29 3
2347 38 9
2348 18 17
2348 19 18
2348 20 12
2349 21 1
2350 12 24
2350 14 19
2351 34 1
2352 24 10
2353 2 1
2354 20 1
2354 28 6
2354 34 1
2355 29 10
2355 30 1
2356 31 1
2357 12 1
2357 26 1
2358 9 5
2358 10 51
2358 11 19
2359 5 1
2360 20 1
2360 29 1
2360 31 4
2361 15 1
2361 28 1
2361 29 14
2361 34 1
2362 2 1
2363 21 1
2364 31 1
2365 24 1
2366 29 1
2366 34 1
2367 26 10
2368 9 1
2368 15 37
2368 16 19
2368 17 30
2369 1 1
2369 2 19
2369 3 40
2369 4 2
2369 5 6
2369 29 1
2369 34 54
2369 38 15
2370 21 1
2370 31 8
2371 3 1
2371 15 6
2371 16 4
2371 17 2
2372 31 2
2373 29 3
2373 30 1
2374 34 1
2375 5 1
2376 24 1
2377 2 1
2378 18 9
2378 19 7
2378 20 1
2379 12 1
2380 29 1
2380 34 1
2381 4 1
2382 5 1
2382 9 18
2382 10 34
2382 11 10
2383 5 1
2384 18 2
2384 19 2
2384 22 1
2385 28 7
2386 2 2
2386 29 1
2387 24 18
2388 3 1
2388 12 7
2388 14 5
2389 28 2
2390 4 3
2390 5 9
2390 30 1
2390 38 8
2391 2 7
2391 3 8
2391 5 1
2391 29 2
2391 34 7
2392 34 1
2393 18 1
2394 31 1
2395 29 2
2396 2 1
2397 18 3
2397 19 3
2397 20 2
2398 29 1
2399 2 6
2399 3 18
2399 34 24
2400 34 1
2401 24 1
2402 34 1
2403 5 1
2403 31 3
2404 29 17
2404 30 3
2404 34 1
2405 2 1
2406 38 1
2407 19 1
2407 20 2
2408 5 3
2408 38 2
2409 2 1
2410 2 1
2410 3 2
2410 7 1
2410 19 1
2410 31 8
2410 34 1
2411 21 1
2412 3 1
2413 18 3
2413 19 6
2413 20 1
2414 31 1
2415 19 1
2416 18 1
2417 1 1
2417 2 4
2417 3 8
2417 34 3
2418 2 20
2418 3 20
2418 5 1
2418 34 30
2419 9 2
2419 11 1
2419 12 1
2419 14 1
2419 15 2
2419 16 1
2420 31 1
2421 3 1
2422 4 15
2422 5 46
2422 38 61
2423 34 1
2424 12 1
2424 14 1
2425 3 1
2426 2 1
2427 23 1
2428 2 2
2428 3 6
2428 28 5
2428 29 2
2428 31 1
2428 34 5
2429 38 1
2430 1 2
2430 2 1
2430 3 10
2430 24 1
2430 29 1
2430 34 10
2431 3 1
2431 29 3
2432 3 1
2433 3 1
2434 4 5
2434 5 19
2434 38 14
2435 2 1
2435 4 9
2435 5 39
2435 38 34
2436 4 2
2436 5 7
2436 18 1
2436 38 22
2437 38 1
2438 31 1
2439 5 1
2440 2 2
2440 3 5
2440 7 1
2440 16 1
2440 22 1
2440 29 1
2440 34 5
2441 3 1
2441 4 1
2441 5 7
2441 19 1
2441 38 3
2442 18 2
2442 19 1
2443 3 1
2443 10 1
2443 12 1
2443 21 1
2443 24 2
2443 34 1
2444 5 1
2444 38 1
2445 12 1
2445 23 1
2445 24 15
2446 4 1
2447 21 6
2447 22 3
2448 26 1
2449 3 1
2450 2 1
2451 14 1
2451 19 1
2452 26 1
2452 29 6
2453 29 1
2454 29 1
2455 29 1
2456 38 1
2457 3 1
2457 5 2
2457 18 1
2457 38 2
2458 10 1
2458 23 2
2458 24 10
2459 28 1
2460 2 1
2460 3 1
2460 5 1
2460 19 2
2460 38 2
2461 21 20
2461 22 13
2462 8 7
2463 29 1
2464 31 3
2465 18 1
2465 28 3
2465 34 1
2466 12 1
2467 31 1
2468 31 2
2469 29 1
2470 26 1
2470 28 1
2471 10 1
2471 24 23
2472 15 1
2473 5 1
2474 8 1
2474 24 4
2475 3 1
2476 9 1
2477 24 1
2477 34 1
2478 3 1
2478 24 15
2479 24 1
2480 8 1
2480 19 1
2480 38 1
2481 21 3
2481 22 6
2481 26 1
2482 20 1
2482 29 1
2482 31 9
2483 24 6
2484 11 1
2485 12 1
2485 18 5
2485 19 3
2486 9 7
2486 10 13
2487 21 1
2488 10 1
2489 2 1
2489 21 31
2489 22 25
2490 38 1
2491 3 1
2492 24 1
2493 34 1
2494 26 1
2495 34 1
2496 8 1
2497 4 2
2497 5 10
2497 38 22
2498 31 1
2499 5 1
2499 12 1
2499 14 2
2499 18 7
2499 19 24
2499 20 8
2499 21 4
2499 22 3
2500 31 1
2501 1 2
2501 2 4
2501 3 10
2501 34 24
2502 29 1
2503 8 1
2504 1 1
2505 4 4
2505 5 21
2505 38 18
2506 19 1
2506 24 15
2507 7 1
2507 24 1
2508 29 1
2509 30 1
2509 31 4
2510 3 1
2510 25 2
2510 26 6
2511 18 1
2512 8 1
2513 5 1
2514 26 1
2515 2 5
2515 3 19
2515 34 19
2516 24 1
2517 18 3
2517 19 1
2517 20 1
2518 24 2
2519 24 1
2520 17 1
2520 29 1
2521 21 1
2521 31 8
2522 2 1
2522 31 1
2522 34 1
2523 2 7
2523 3 9
2523 10 1
2523 34 18
2524 2 1
2524 34 1
2525 20 1
2526 1 2
2526 2 31
2526 3 58
2526 19 1
2526 34 73
2527 22 1
2528 29 10
2528 30 1
2528 34 1
2529 19 1
2529 24 3
2530 2 1
2530 34 2
2531 3 1
2531 21 5
2531 22 1
2531 34 1
2532 34 1
2533 7 1
2533 8 1
2534 24 1
2535 24 4
2536 24 1
2537 5 1
2537 8 1
2538 24 11
2538 29 8
2539 26 2
2540 31 14
2541 21 2
2541 22 3
2542 2 1
2542 20 1
2543 24 1
2544 17 2
2545 12 2
2545 18 7
2545 19 2
2545 20 1
2546 29 15
2546 34 1
2547 15 1
2547 17 1
2548 34 1
2549 5 1
2550 11 1
2551 31 1
2552 25 1
2552 26 5
2552 29 6
2553 3 1
2554 11 1
2555 2 1
2555 14 1
2555 24 1
2555 29 1
2556 20 1
2557 28 7
2557 38 1
2558 8 1
2558 9 22
2558 10 31
2558 11 24
2559 15 6
2559 16 5
2559 17 4
2560 29 3
2561 34 1
2562 24 1
2563 5 1
2563 29 1
2563 31 5
2564 5 1
2565 4 1
2566 14 1
2567 15 1
2568 29 14
2569 21 1
2569 24 10
2570 22 2
2571 19 1
2572 12 11
2572 14 8
2573 16 1
2573 38 1
2574 5 1
2575 12 1
2575 14 1
2576 9 1
2576 11 1
2576 18 1
2576 34 1
2577 19 1
2577 21 1
2578 29 3
2579 12 12
2579 14 5
2580 34 1
2581 3 1
2581 19 1
2582 21 1
2583 29 1
2584 24 3
2585 19 1
2586 4 5
2586 5 27
2586 28 4
2586 38 33
2587 28 1
2588 34 1
2589 14 1
2590 26 6
2591 22 1
2592 15 4
2592 16 1
2592 17 2
2593 38 1
2594 24 2
2595 10 1
2595 24 9
2596 24 25
2597 3 1
2598 24 1
2599 4 2
2599 5 8
2599 38 7
2600 24 1
2601 5 4
2601 34 1
2601 38 7
2602 31 21
2603 34 1
2604 15 4
2604 16 2
2604 17 1
2605 29 3
2606 5 1
2607 18 1
2608 38 3
2609 29 2
2610 9 2
2610 10 3
2611 38 1
2612 2 1
2612 3 3
2612 34 3
2613 29 1
2614 4 1
2614 5 13
2614 19 1
2614 38 16
2615 1 1
2615 2 16
2615 3 13
2615 34 21
2616 19 1
2617 31 21
2618 3 1
2619 24 6
2620 14 1
2620 29 4
2620 30 3
2621 20 1
2622 11 1
2623 19 1
2624 1 2
2624 2 5
2624 3 21
2624 34 22
2625 34 1
2626 3 1
2626 4 1
2626 5 11
2626 38 6
2627 4 1
2627 5 1
2627 7 1
2627 14 2
2627 15 1
2627 24 1
2627 28 1
2627 34 3
2627 38 1
2628 3 1
2629 29 1
2630 19 1
2631 34 1
2632 2 5
2632 3 1
2632 34 5
2633 29 12
2633 30 2
2634 24 7
2635 24 1
2636 34 1
2637 3 1
2638 28 2
2639 10 3
2639 11 1
2640 21 1
2641 38 1
2642 24 1
2643 34 1
2644 3 2
2644 12 2
2644 14 4
2644 18 1
2645 5 1
2646 14 1
2647 34 1
2648 12 1
2648 18 34
2648 19 58
2648 20 21
2650 10 1
2650 26 1
2650 38 1
2651 29 1
2652 2 1
2652 21 2
2653 3 1
2653 24 5
2654 31 1
2655 26 1
2656 12 1
2657 34 1
2658 19 1
2658 34 1
2659 18 1
2660 28 7
2661 2 3
2661 3 20
2661 34 24
2662 3 1
2662 34 1
2663 25 1
2663 26 8
2664 38 1
2665 21 2
2665 22 4
2665 34 1
2666 28 1
2667 20 1
2667 29 19
2667 30 4
2667 34 1
2668 3 2
2669 29 1
2670 22 2
2671 26 1
2671 29 12
2671 30 3
2672 29 1
2672 30 1
2673 18 4
2673 19 3
2673 20 4
2673 24 1
2673 34 1
2674 19 1
2674 25 1
2674 26 16
2675 12 2
2676 22 1
2677 5 1
2677 24 1
2677 28 1
2678 2 1
2678 3 1
2678 34 1
2679 19 1
2680 19 1
2681 3 1
2681 9 6
2681 10 10
2681 11 6
2682 3 1
2683 8 1
2684 15 4
2684 17 2
2684 38 1
2685 18 6
2685 19 7
2685 20 5
2686 18 1
2687 34 1
2688 17 1
2688 18 1
2689 26 8
2690 20 1
2691 17 1
2692 19 1
2692 26 4
2693 16 1
2693 24 1
2694 19 1
2695 12 1
2695 24 5
2696 9 12
2696 10 23
2696 11 9
2696 14 1
2697 9 2
2697 10 5
2697 11 5
2698 38 1
2699 15 23
2699 16 11
2699 17 13
2700 28 11
2701 23 1
2701 24 3
2702 18 1
2703 18 1
2704 20 1
2704 29 2
2705 38 1
2706 24 1
2707 2 1
2707 21 31
2707 22 21
2708 21 1
2709 18 22
2709 19 17
2709 20 10
2710 4 8
2710 5 37
2710 38 45
2711 2 3
2711 3 3
2711 34 8
2712 19 1
2712 31 7
2713 24 1
2713 29 1
2714 9 1
2715 22 1
2715 25 3
2715 26 8
2716 15 1
2717 3 1
2718 5 1
2719 3 1
2720 26 1
2721 2 1
2721 31 1
2722 7 6
2722 8 14
2723 4 1
2724 5 1
2725 26 1
2726 34 1
2727 29 1
2728 21 1
2729 18 1
2730 29 1
2731 18 1
2731 28 3
2732 9 1
2733 29 2
2733 30 1
2734 29 1
2735 3 1
2735 31 31
2736 21 1
2737 19 1
2737 29 1
2738 23 1
2738 24 19
2739 15 6
2739 16 3
2739 17 2
2740 19 1
2741 17 1
2742 2 1
2742 26 8
2743 5 1
2744 34 1
2745 24 1
2745 28 5
2745 34 2
2746 24 1
2746 34 1
2747 24 1
2748 16 1
2748 17 1
2749 3 1
2749 10 8
2749 11 6
2750 10 2
2751 31 6
2752 15 1
2753 8 1
2754 7 5
2754 8 8
2755 34 1
2756 29 5
2756 30 1
2757 21 1
2757 29 11
2758 15 1
2759 22 1
2760 34 1
2761 15 1
2761 24 3
2762 34 1
2763 4 1
2763 28 3
2763 34 1
2764 34 1
2765 38 1
2766 38 1
2767 3 1
2768 34 1
2769 19 1
2770 3 1
2771 5 1
2771 38 1
2772 12 2
2772 29 3
2773 18 6
2773 19 2
2773 20 1
2774 29 5
2774 30 2
2775 2 3
2775 3 6
2775 34 5
2776 5 1
2777 25 3
2777 26 9
2778 3 1
2778 19 1
2779 2 1
2779 24 2
2779 29 4
2780 9 1
2781 5 3
2781 15 1
2781 38 2
2782 34 1
2783 24 7
2784 28 1
2785 5 1
2785 28 6
2786 2 1
2786 3 1
2787 31 6
2788 5 1
2789 38 1
2790 29 7
2790 30 1
2791 12 1
2791 24 1
2792 29 9
2793 4 1
2794 38 1
2795 24 1
2796 16 1
2797 20 1
2797 24 1
2797 34 1
2798 1 1
2798 2 6
2798 3 5
2798 34 10
2799 19 1
2800 18 38
2800 19 48
2800 20 14
2801 3 1
2802 5 2
2802 38 1
2803 19 1
2804 4 6
2804 5 30
2804 38 50
2805 29 1
2806 11 1
2807 24 1
2808 1 1
2808 2 8
2808 3 19
2808 28 6
2808 34 37
2809 19 1
2810 3 1
2811 24 1
2812 19 1
2813 24 1
2814 4 1
2814 28 2
2815 3 1
2816 24 13
2817 13 1
2817 14 9
2817 26 8
2818 2 10
2818 3 24
2818 34 10
2819 21 1
2820 3 1
2820 9 4
2820 10 6
2820 11 2
2821 2 8
2821 3 14
2821 24 1
2821 29 9
2821 34 19
2822 21 26
2822 22 7
2823 29 9
2824 24 18
2824 34 1
2825 38 1
2826 20 1
2827 24 18
2828 29 1
2829 29 1
2830 2 7
2830 3 12
2830 34 13
2831 5 1
2832 18 1
2832 19 3
2832 20 3
2833 5 1
2834 24 9
2834 31 1
2835 10 2
2836 24 4
2837 4 3
2837 5 15
2837 38 17
2838 28 1
2839 28 2
2840 5 14
2840 24 1
2840 28 6
2840 34 1
2840 38 20
2841 3 1
2841 21 2
2841 31 1
2842 4 1
2842 5 11
2842 38 12
2843 19 1
2844 31 2
2845 19 1
2845 24 11
2846 24 1
2847 3 1
2848 38 1
2849 24 33
2850 12 1
2851 26 3
2851 31 1
2852 29 18
2852 30 1
2853 34 1
2854 24 2
2854 31 1
2855 24 4
2856 8 1
2856 20 1
2856 31 1
2857 7 2
2857 12 22
2857 13 1
2857 14 14
2858 19 1
2858 21 12
2858 22 9
2859 24 13
2859 34 1
2860 34 1
2861 10 1
2862 8 1
2863 31 1
2864 2 4
2864 3 9
2864 19 1
2864 34 22
2865 19 1
2866 24 1
2867 15 1
2867 16 1
2867 17 2
2868 14 1
2868 29 4
2868 30 2
2869 12 1
2870 18 3
2870 19 4
2871 2 1
2872 18 1
2873 29 12
2873 30 2
2874 4 1
2875 4 4
2875 5 11
2875 38 14
2876 19 1
2876 31 17
2877 8 1
2877 29 1
2877 31 8
2878 18 6
2878 19 8
2879 3 1
2879 12 1
2880 19 3
2880 20 1
2881 9 1
2881 15 2
2881 34 1
2882 20 1
2883 2 1
2884 1 1
2884 2 22
2884 3 13
2884 34 45
2885 3 1
2885 28 1
2885 31 10
2886 31 3
2887 24 7
2888 3 1
2888 4 1
2888 17 1
2888 38 1
2889 34 1
2890 30 1
2891 16 1
2891 17 1
2892 29 8
2893 23 1
2893 24 1
2894 9 1
2895 25 3
2895 26 9
2895 29 17
2895 30 1
2896 9 1
2897 28 1
2898 28 1
2899 8 1
2900 14 1
2900 34 1
2901 3 1
2902 7 2
2902 34 1
2903 3 1
2903 14 1
2903 24 8
2904 4 1
2905 14 1
2906 5 1
2906 29 25
2906 30 1
2906 34 1
2907 5 1
2907 18 2
2907 19 1
2908 3 3
2908 11 1
2908 29 6
2908 34 7
2909 21 27
2909 22 14
2910 11 1
2910 14 1
2911 24 12
2912 3 1
2912 12 1
2913 29 6
2914 22 1
2915 29 5
2916 5 1
2917 38 1
2918 3 1
2919 34 1
2920 24 6
2921 21 2
2921 22 4
2922 2 1
2923 18 1
2924 19 1
2924 29 7
2924 30 1
2925 18 38
2925 19 53
2925 20 16
2925 38 1
2926 19 1
2927 4 1
2927 5 9
2927 38 11
2928 18 9
2928 19 10
2929 3 1
2930 19 1
2931 29 1
2932 5 1
2933 24 1
2934 29 1
2935 34 1
2936 29 4
2937 14 1
2938 22 1
2938 24 2
2939 24 1
2940 3 1
2940 25 1
2940 26 13
2941 5 8
2941 19 1
2941 22 1
2941 38 5
2942 12 3
2942 13 1
2943 34 1
2944 21 1
2945 19 1
2946 2 1
2946 8 2
2946 19 1
2946 29 1
2946 34 1
2947 24 13
2948 5 2
2948 38 3
2949 22 1
2950 3 1
2950 18 8
2950 19 11
2950 20 1
2951 19 1
2951 20 1
2952 34 1
2953 12 4
2953 13 1
2953 14 8
2954 2 1
2955 2 1
2956 34 1
2957 4 7
2957 5 25
2957 38 28
2958 3 1
2959 18 1
2959 24 23
2959 38 1
2960 24 5
2961 29 14
2961 30 4
2962 3 1
2963 38 1
2964 12 5
2964 13 2
2964 14 3
2965 24 1
2966 12 22
2966 13 1
2966 14 22
2967 2 1
2967 3 5
2967 34 9
2968 19 1
2969 2 9
2969 3 32
2969 18 1
2969 34 37
2970 12 5
2970 34 1
2971 2 15
2971 3 22
2971 29 3
2971 34 39
2972 24 1
2973 3 1
2974 18 8
2974 19 11
2974 20 2
2975 31 1
2976 28 1
2977 34 1
2978 19 1
2978 28 3
2979 9 1
2979 10 4
2979 11 2
2980 31 1
2981 2 1
2982 12 5
2982 14 4
2983 2 5
2983 3 16
2983 34 10
2984 38 1
2985 21 8
2985 22 6
2985 34 1
2986 5 1
2987 34 1
2988 18 1
2988 24 1
2989 5 1
2989 17 1
2989 28 2
2989 31 1
2990 28 3
2990 29 13
2990 30 1
2991 2 6
2991 3 5
2991 25 1
2991 26 5
2991 34 3
2992 29 3
2993 1 3
2993 2 25
2993 3 58
2993 34 77
2994 24 8
2995 19 1
2996 19 2
2996 20 2
2996 21 7
2996 22 2
2997 2 1
2998 2 11
2998 3 10
2998 34 11
2999 9 3
2999 10 3
2999 11 5
2999 24 1
2999 29 1
3000 12 1
3001 28 2
3002 34 1
3003 5 1
3003 34 1
3003 38 2
3004 3 1
3005 9 1
3005 10 2
3005 12 3
3006 38 1
3007 10 1
3007 13 1
3008 24 1
3008 28 1
3008 29 3
3008 30 1
3009 28 2
3010 26 1
3011 24 1
3011 26 1
3012 15 1
3012 16 1
3013 12 1
3014 19 1
3015 4 4
3015 5 4
3015 22 1
3015 38 4
3016 34 1
3017 3 1
3017 25 1
3017 31 1
3018 3 1
3019 38 1
3020 4 2
3020 5 25
3020 19 1
3020 29 1
3020 38 20
3021 25 1
3021 31 1
3022 11 1
3023 5 1
3023 29 1
3024 3 1
3025 3 1
3026 4 5
3026 5 27
3026 38 33
3027 18 33
3027 19 47
3027 20 19
3028 28 2
3028 34 1
3029 28 2
3029 31 1
3030 2 17
3030 3 58
3030 34 60
3031 4 4
3031 5 11
3031 38 10
3032 5 1
3033 29 8
3034 18 1
3035 1 2
3035 2 27
3035 3 48
3035 29 9
3035 34 74
3036 25 1
3036 26 17
3037 5 1
3037 24 1
3038 21 4
3038 22 4
3039 19 1
3039 20 1
3040 4 3
3040 5 2
3040 38 3
3041 24 11
3042 24 1
3043 10 1
3044 29 32
3044 30 3
3045 18 24
3045 19 35
3045 20 10
3046 5 1
3047 18 1
3048 24 1
3049 21 6
3049 22 4
3050 29 1
3051 34 1
3052 5 1
3053 5 1
3054 4 1
3054 5 7
3054 38 9
3055 3 1
3056 19 1
3057 38 1
3058 5 4
3058 38 5
3059 4 1
3060 28 3
3061 29 7
3062 2 1
3063 11 1
3063 24 7
3064 3 1
3064 38 1
3065 3 1
3066 2 6
3066 3 22
3066 34 17
3067 31 3
3068 12 1
3069 7 2
3069 8 15
3069 12 1
3070 38 3
3071 12 1
3072 34 1
3073 29 1
3074 23 3
3074 24 11
3075 21 1
3076 24 1
3077 3 1
3077 21 1
3077 22 2
3077 29 1
3078 2 1
3079 29 1
3080 11 1
3080 17 1
3080 18 32
3080 19 63
3080 20 14
3081 18 30
3081 19 43
3081 20 9
3082 34 1
3083 34 1
3084 2 1
3085 34 1
3086 5 1
3086 29 4
3087 29 1
3088 38 1
3089 11 1
3090 24 3
3091 21 6
3091 22 2
3092 3 1
3092 34 1
3093 7 10
3093 8 21
3093 18 12
3093 19 16
3093 20 5
3094 11 1
3095 29 1
3096 19 2
3097 31 19
3098 7 1
3099 3 1
3100 12 25
3100 13 2
3100 14 12
3101 14 1
3102 12 1
3103 1 1
3103 2 27
3103 3 50
3103 34 73
3104 3 1
3105 29 13
3105 30 1
3106 2 1
3106 4 4
3106 5 22
3106 38 53
3107 28 2
3107 34 1
3108 7 6
3108 8 17
3109 3 1
3109 19 1
3110 3 1
3110 38 1
3111 24 1
3111 26 2
3112 29 1
3113 10 1
3113 21 2
3113 22 4
3113 38 1
3114 19 1
3115 12 1
3116 2 1
3117 18 1
3118 3 1
3118 5 1
3118 19 2
3118 24 1
3118 34 1
3119 29 1
3120 29 1
3121 24 3
3121 29 1
3122 8 1
3123 19 1
3124 3 1
3125 2 1
3126 3 1
3127 14 1
3127 31 1
3128 3 1
3129 21 1
3130 34 1
3130 38 1
3131 3 1
3132 3 9
3132 4 1
3132 5 11
3132 34 15
3132 38 14
3133 4 1
3134 38 1
3135 5 1
3136 3 1
3137 30 1
3138 24 1
3139 3 1
3139 21 1
3140 4 1
3140 5 3
3140 18 5
3140 19 3
3140 20 3
3140 34 1
3140 38 1
3141 5 11
3141 38 3
3142 34 1
3143 29 8
3144 24 2
3145 34 1
3146 3 1
3147 21 5
3147 22 5
3148 19 1
3149 21 1
3149 22 2
3150 3 1
3150 10 2
3150 11 2
3150 12 14
3150 14 12
3151 34 1
3152 3 1
3153 29 2
3154 17 1
3155 7 18
3155 8 32
3155 21 1
3156 13 1
3156 14 2
3156 21 1
3156 29 1
3156 34 1
3157 2 10
3157 3 16
3157 34 21
3158 19 1
3158 22 1
3159 15 3
3159 16 2
3159 17 3
3160 24 3
3160 26 5
3161 23 1
3161 24 7
3162 29 1
3163 9 1
3163 24 7
3164 5 1
3165 15 3
3165 16 3
3165 17 2
3166 5 2
3166 38 1
3167 12 4
3167 14 3
3167 38 1
3168 31 1
3169 17 1
3170 29 13
3170 30 1
3171 1 1
3171 2 2
3171 3 4
3171 34 8
3172 5 10
3172 38 4
3173 24 1
3174 5 1
3174 7 2
3174 8 6
3174 10 2
3174 11 1
3174 29 1
3174 34 1
3175 34 1
3176 10 1
3177 28 7
3178 24 3
3179 5 1
3179 18 4
3179 19 2
3179 20 1
3180 2 7
3180 3 15
3180 34 17
3181 16 1
3181 29 5
3181 30 2
3182 29 1
3183 31 7
3184 2 4
3184 3 12
3184 29 1
3184 34 28
3185 18 1
3186 15 1
3186 28 10
3187 10 1
3188 3 1
3189 5 2
3189 29 1
3190 29 2
3190 30 1
3191 18 1
3192 23 1
3192 24 22
3193 24 6
3194 3 1
3194 4 2
3194 5 1
3194 17 1
3194 18 1
3194 19 5
3194 29 6
3194 38 4
3195 2 1
3196 29 2
3197 10 2
3197 26 1
3198 29 1
3199 18 25
3199 19 39
3199 20 18
3200 16 1
3200 29 1
3201 15 8
3201 16 2
3201 17 6
3202 2 2
3202 3 7
3202 24 1
3202 34 7
3203 24 3
3203 26 1
3203 29 7
3204 8 1
3205 15 31
3205 16 27
3205 17 23
3206 29 26
3206 30 1
3207 21 1
3208 5 1
3209 19 1
3209 20 1
3210 18 1
3210 26 1
3210 31 11
3210 33 1
3211 24 1
3212 19 1
3213 12 1
3214 5 1
3215 15 4
3215 16 1
3216 9 1
3217 29 3
3218 10 1
3218 15 1
3219 34 1
3220 2 2
3220 3 2
3220 34 2
3221 1 1
3221 5 1
3221 28 3
3221 29 1
3221 38 1
3222 24 1
3223 29 30
3224 20 1
3225 14 2
3225 29 13
3225 30 1
3226 12 14
3226 14 12
3226 38 1
3227 5 4
3228 5 1
3229 9 1
3230 29 2
3231 8 1
3231 19 1
3232 21 2
3233 9 2
3233 10 5
3233 11 3
3234 17 1
3235 24 1
3236 29 3
3236 30 1
3237 2 1
3237 12 1
3238 24 1
3238 34 1
3239 31 1
3240 12 1
3240 13 1
3240 14 2
3241 10 1
3242 24 7
3243 1 1
3243 2 15
3243 3 29
3243 34 27
3244 5 1
3245 1 1
3245 2 5
3245 3 7
3245 34 13
3246 34 1
3247 14 1
3248 31 6
3249 24 1
3250 3 1
3250 22 1
3250 26 5
3251 28 1
3252 22 1
3252 29 19
3253 2 1
3253 19 1
3253 29 1
3253 30 1
3253 34 1
3254 34 1
3255 2 11
3255 3 24
3255 34 51
3256 12 5
3256 14 3
3257 21 1
3257 34 1
3258 18 5
3258 19 6
3258 20 3
3259 34 1
3260 21 16
3260 22 10
3261 38 1
3262 2 5
3262 3 12
3262 4 1
3262 34 13
3263 2 1
3263 12 3
3263 14 1
3264 2 7
3264 3 12
3264 34 11
3265 4 1
3265 24 1
3266 3 1
3266 34 1
3266 38 1
3267 2 4
3267 3 12
3267 34 12
3268 3 1
3269 3 1
3270 2 1
3270 8 1
3270 24 4
3271 18 1
3271 21 16
3271 22 10
3272 4 1
3273 19 1
3274 24 1
3275 24 4
3276 7 1
3276 8 2
3276 14 1
3276 23 1
3276 24 1
3277 17 1
3277 29 10
3278 7 5
3278 8 4
3279 21 1
3279 22 2
3280 3 1
3281 26 1
3282 3 1
3282 18 1
3283 9 1
3283 10 6
3283 11 2
3283 15 1
3283 17 1
3284 15 27
3284 16 29
3284 17 27
3285 10 1
3285 12 1
3286 5 1
3287 4 1
3288 34 1
3289 18 1
3289 25 1
3289 26 4
3289 31 7
3290 9 1
3291 34 1
3292 26 2
3293 5 1
3293 15 1
3293 16 1
3293 17 2
3294 2 1
3294 24 4
3295 7 1
3295 29 1
3296 3 1
3297 34 1
3298 19 1
3299 38 1
3300 5 1
3301 3 1
3302 2 1
3303 34 1
3304 26 2
3305 38 1
3306 29 2
3306 30 1
3307 15 1
3307 17 1
3308 24 1
3309 38 2
3310 31 1
3311 12 2
3311 14 2
3312 28 2
3313 24 2
3313 29 2
3314 24 9
3314 29 6
3314 30 1
3315 2 1
3315 3 6
3315 24 1
3315 34 4
3316 18 1
3316 21 1
3317 8 1
3317 26 1
3317 29 1
3318 28 1
3318 34 1
3319 7 10
3319 8 18
3320 3 2
3320 12 53
3320 13 3
3320 14 32
3321 28 2
3322 3 1
3323 22 1
3324 18 1
3324 21 6
3324 22 4
3324 23 1
3324 24 21
3325 4 1
3326 15 1
3326 26 2
3327 3 1
3328 31 1
3329 19 1
3330 15 1
3330 16 1
3330 17 1
3330 19 2
3330 21 1
3331 29 5
3332 15 1
3332 16 1
3333 5 1
3334 24 10
3334 34 1
3334 38 1
3335 16 1
3335 29 3
3335 30 2
3336 2 5
3336 3 13
3336 8 1
3336 29 1
3336 34 11
3337 24 1
3338 12 1
3338 15 1
3338 16 1
3339 29 1
3340 12 1
3341 29 1
3341 31 2
3341 34 1
3342 2 4
3342 3 6
3342 4 5
3342 5 44
3342 38 32
3343 38 1
3344 5 1
3345 19 1
3346 16 1
3346 17 1
3347 24 5
3347 25 1
3347 26 2
3348 28 4
3349 18 1
3349 34 1
3349 38 1
3350 24 2
3351 3 1
3351 7 1
3352 3 1
3353 5 1
3354 29 5
3354 30 2
3354 38 1
3355 7 1
3356 4 24
3356 5 77
3356 38 104
3357 24 3
3358 38 1
3359 2 1
3359 9 5
3359 10 12
3359 11 4
3359 34 2
3360 4 2
3360 5 13
3360 38 14
3361 17 1
3362 29 1
3363 29 1
3364 10 1
3364 12 1
3364 14 1
3364 18 2
3364 19 3
3364 20 2
3365 38 1
3366 25 2
3366 26 4
3367 14 1
3368 22 1
3369 24 1
3370 31 3
3370 34 1
3371 12 37
3371 13 1
3371 14 25
3371 26 1
3372 12 1
3372 24 1
3373 5 1
3374 30 1
3375 21 16
3375 22 14
3376 29 1
3376 31 2
3377 24 1
3378 7 12
3378 8 20
3378 16 1
3379 5 3
3379 38 11
3380 12 2
3380 24 3
3381 11 1
3382 8 1
3383 2 1
3384 17 1
3385 5 1
3386 17 1
3386 29 10
3386 30 1
3387 18 1
3387 21 20
3387 22 10
3388 9 1
3389 18 20
3389 19 24
3389 20 7
3389 34 1
3390 5 1
3391 21 52
3391 22 39
3392 3 1
3392 21 3
3392 22 3
3393 29 1
3394 31 5
3395 1 1
3395 3 1
3396 29 1
3397 12 2
3397 14 3
3398 22 1
3398 29 2
3399 4 6
3399 5 21
3399 38 28
3400 38 5
3401 5 1
3402 38 1
3403 3 1
3404 22 1
3405 3 1
3406 18 16
3406 19 36
3406 20 5
3407 7 7
3407 8 15
3408 24 5
3409 31 3
3410 38 3
3411 34 1
3412 5 1
3413 19 4
3413 20 4
3414 7 1
3414 28 1
3414 38 1
3415 2 1
3415 14 2
3415 38 1
3416 4 2
3416 5 3
3416 21 1
3416 38 9
3417 34 3
3418 2 2
3418 3 2
3418 29 6
3418 34 3
3419 4 1
3419 5 5
3419 11 1
3419 19 1
3419 38 6
3420 24 4
3421 3 1
3422 15 7
3422 16 3
3422 17 6
3422 38 1
3423 9 1
3423 10 1
3423 11 2
3424 12 4
3424 13 1
3424 14 4
3425 2 7
3425 3 20
3425 34 25
3425 38 2
3426 19 1
3427 12 4
3427 14 5
3427 28 2
3428 4 1
3429 18 15
3429 19 23
3429 20 5
3430 29 1
3431 12 1
3432 8 1
3432 24 1
3433 9 1
3434 7 1
3434 18 30
3434 19 34
3434 20 14
3435 2 2
3435 3 5
3435 34 22
3436 10 1
3437 22 1
3438 4 1
3439 38 1
3440 2 1
3440 3 3
3440 29 1
3440 34 5
3441 14 1
3442 21 6
3442 22 6
3443 34 1
3444 29 15
3444 30 2
3445 31 1
3445 34 1
3446 19 1
3446 29 6
3447 19 1
3448 2 1
3448 38 2
3449 16 1
3450 5 1
3450 18 16
3450 19 17
3450 20 6
3450 22 1
3451 19 1
3452 34 1
3453 18 1
3454 19 1
3455 1 1
3455 2 11
3455 3 12
3455 29 1
3455 34 20
3456 11 1
3456 17 1
3457 34 1
3458 3 1
3459 15 4
3459 17 2
3459 21 1
3460 24 4
3461 2 7
3461 3 6
3461 34 16
3462 24 3
3463 15 1
3463 17 1
3464 34 1
3465 24 1
3466 28 5
3467 18 1
3468 11 1
3468 18 1
3468 19 1
3468 24 1
3469 2 1
3470 9 11
3470 10 13
3470 11 5
3471 3 1
3472 2 1
3472 5 1
3472 8 1
3472 15 9
3472 16 3
3472 17 6
3472 21 8
3472 22 5
3472 38 1
3473 24 1
3474 11 1
3474 21 2
3474 28 1
3475 19 1
3476 2 8
3476 3 12
3476 34 10
3477 38 1
3478 24 2
3479 5 1
3479 12 1
3479 28 1
3479 34 2
3480 8 1
3481 14 1
3482 38 1
3483 24 1
3483 28 2
3484 18 3
3484 19 1
3485 5 1
3485 7 1
3485 11 1
3485 21 11
3485 22 7
3486 3 1
3486 12 1
3487 12 2
3488 2 2
3489 5 1
3490 3 1
3491 22 1
3491 34 1
3492 18 1
3492 38 1
3493 29 6
3494 7 1
3495 29 13
3495 30 1
3496 29 12
3496 30 1
3497 5 1
3497 38 1
3498 2 1
3498 38 1
3499 28 1
3500 22 1
3501 24 3
3502 3 1
3503 2 1
3503 34 1
3504 34 1
3505 2 30
3505 3 32
3505 34 45
3506 34 1
3507 3 1
3508 9 3
3508 10 1
3508 11 2
3508 21 1
3508 38 1
3509 12 1
3509 14 1
3509 31 1
3510 26 1
3510 38 1
3511 9 1
3512 8 1
3513 3 1
3513 30 1
3514 5 2
3514 38 2
3515 34 1
3516 8 1
3517 17 1
3518 4 2
3518 5 8
3518 38 8
3519 34 1
3520 21 11
3520 22 5
3521 19 1
3521 29 5
3522 31 2
3523 4 1
3523 5 8
3523 38 11
3524 9 1
3524 10 2
3524 11 1
3525 2 1
3526 3 1
3526 5 1
3526 29 3
3526 30 1
3527 4 3
3527 5 30
3527 38 33
3528 29 2
3529 20 1
3530 12 1
3531 18 1
3532 29 3
3532 30 1
3533 24 2
3534 24 1
3534 34 1
3534 38 1
3535 1 1
3535 2 6
3535 3 12
3535 34 7
3536 2 2
3536 3 9
3536 34 16
3537 12 24
3537 13 3
3537 14 12
3538 12 1
3539 19 1
3540 29 5
3541 15 2
3541 16 2
3542 24 2
3543 18 6
3543 19 8
3543 20 3
3544 3 1
3544 22 1
3545 24 8
3546 7 6
3546 8 11
3547 26 1
3547 34 1
3548 5 1
3549 38 1
3550 38 2
3551 31 20
3552 18 1
3552 20 1
3553 24 5
3554 10 1
3555 18 1
3555 21 5
3555 22 7
3555 24 1
3555 29 1
3556 4 9
3556 5 27
3556 38 29
3557 38 1
3558 7 11
3558 8 23
3558 24 1
3558 29 1
3559 29 4
3559 30 1
3560 11 1
3561 18 1
3562 28 1
3563 2 16
3563 3 35
3563 22 1
3563 24 1
3563 34 44
3564 4 1
3564 29 1
3565 29 1
3566 24 5
3567 38 2
3568 3 1
3568 4 1
3568 9 1
3568 10 1
3568 11 1
3568 19 1
3568 29 1
3569 25 1
3570 28 1
3571 3 1
3571 10 1
3571 28 1
3571 38 1
3572 22 1
3572 23 1
3572 24 2
3573 4 5
3573 5 23
3573 24 9
3573 38 30
3574 16 1
3574 25 2
3574 26 3
3574 34 1
3575 2 1
3575 38 1
3576 7 3
3576 8 9
3577 10 1
3578 7 8
3578 8 15
3578 18 1
3579 21 1
3580 9 1
3581 24 14
3582 2 1
3583 11 1
3584 22 1
3585 16 1
3585 28 9
3586 3 1
3587 29 1
3588 29 1
3589 26 3
3590 34 1
3591 38 1
3592 26 3
3593 2 2
3593 3 1
3593 34 1
3594 34 1
3595 23 1
3595 34 1
3595 38 1
3596 31 1
3597 26 1
3598 7 5
3598 8 9
3599 23 2
3599 24 10
3600 4 1
3600 38 1
3601 29 1
3602 21 35
3602 22 25
3602 30 1
3603 29 1
3603 34 1
3603 38 1
3604 1 1
3604 2 20
3604 3 15
3604 29 1
3604 34 36
3605 10 1
3606 19 1
3607 14 1
3607 38 1
3608 9 1
3608 10 2
3609 21 26
3609 22 18
3609 38 1
3610 11 1
3611 12 1
3611 24 1
3612 34 1
3613 21 1
3614 7 1
3615 29 1
3616 9 1
3616 29 6
3616 30 1
3617 26 2
3617 28 1
3617 29 2
3618 20 1
3618 29 5
3619 9 4
3619 10 20
3619 11 7
3619 18 1
3620 19 1
3621 3 1
3621 26 2
3621 29 1
3622 22 2
3623 24 6
3624 3 1
3625 28 1
3626 5 1
3626 18 22
3626 19 31
3626 20 11
3626 34 1
3627 31 1
3628 11 1
3628 18 1
3628 31 9
3629 18 1
3630 4 8
3630 5 54
3630 38 51
3631 38 1
3632 12 17
3632 13 2
3632 14 23
3632 34 1
3633 29 1
3634 29 1
3635 2 1
3636 25 1
3636 26 7
3637 26 1
3638 29 1
3639 31 2
3640 24 1
3641 14 1
3642 18 1
3643 29 10
3643 30 1
3644 2 1
3644 3 14
3644 15 1
3644 34 14
3645 29 1
3646 23 1
3646 24 13
3647 34 1
3648 4 1
3649 18 9
3649 19 6
3650 5 1
3650 19 1
3651 12 5
3652 5 1
3652 24 1
3653 3 8
3653 34 14
3654 11 1
3654 24 1
3655 24 3
3656 28 1
3657 7 1
3658 3 1
3658 28 4
3659 3 1
3660 21 3
3660 22 1
3661 1 2
3661 2 5
3661 3 15
3661 34 21
3662 29 4
3663 2 1
3663 3 1
3663 24 1
3663 34 2
3664 24 2
3665 5 1
3666 26 1
3666 29 1
3667 29 14
3667 30 1
3667 34 1
3668 5 1
3668 24 2
3669 3 1
3669 9 1
3670 26 1
3670 34 1
3671 5 1
3672 9 1
3672 28 4
3673 4 1
3673 5 1
3673 12 1
3673 16 1
3673 24 1
3673 29 12
3674 2 1
3674 9 1
3674 15 1
3675 7 6
3675 8 4
3676 2 1
3676 3 1
3676 34 4
3677 19 1
3677 26 1
3678 19 1
3679 3 2
3679 34 3
3680 2 1
3681 34 1
3682 3 1
3682 31 1
3683 18 2
3683 19 7
3683 20 3
3683 24 1
3684 19 1
3685 5 1
3685 12 1
3686 10 1
3687 9 2
3687 10 4
3687 11 6
3688 1 1
3688 2 14
3688 3 28
3688 34 39
3689 2 1
3690 7 6
3690 8 6
3691 2 12
3691 3 17
3691 9 1
3691 34 17
3692 12 9
3692 13 1
3692 14 8
3692 19 1
3693 10 1
3693 29 1
3694 3 1
3694 19 1
3694 25 2
3694 26 6
3695 4 3
3695 5 1
3695 38 1
3696 3 1
3697 3 1
3697 4 1
3697 5 8
3697 38 8
3698 31 1
3699 22 1
3700 21 1
3701 2 1
3702 1 1
3702 2 19
3702 3 30
3702 34 35
3703 20 1
3704 24 4
3705 1 2
3705 2 12
3705 3 18
3705 34 17
3706 9 2
3706 10 5
3706 11 1
3706 16 1
3706 17 1
3707 14 1
3708 2 1
3708 24 7
3709 3 1
3709 34 1
3710 29 5
3711 8 1
3711 31 1
3712 24 1
3713 28 1
3714 24 1
3715 19 1
3716 1 1
3716 2 16
3716 3 10
3716 34 24
3717 5 1
3718 14 1
3719 24 4
3720 3 1
3721 21 1
3722 3 1
3723 2 1
3723 29 15
3723 30 1
3724 12 1
3724 15 1
3724 24 12
3724 29 5
3725 38 1
3726 15 2
3726 16 1
3726 23 1
3727 7 22
3727 8 47
3727 20 1
3728 3 1
3729 2 4
3729 3 7
3729 24 9
3729 34 16
3730 38 1
3731 10 1
3732 29 6
3732 31 6
3733 10 1
3734 24 1
3734 30 1
3734 38 2
3735 34 1
3736 24 1
3737 3 1
3737 10 1
3738 9 2
3738 10 8
3738 11 2
3738 21 1
3739 8 1
3740 5 1
3740 24 2
3740 34 1
3741 24 8
3741 29 1
3741 31 6
3742 21 5
3742 22 1
3743 26 1
3744 3 1
3744 21 4
3744 22 6
3744 38 1
3745 31 3
3746 24 1
3746 25 1
3746 26 7
3747 5 1
3748 20 1
3749 4 1
3749 5 11
3749 38 14
3750 15 17
3750 16 11
3750 17 11
3751 5 1
3752 28 2
3752 29 2
3753 24 6
3754 15 6
3754 16 5
3754 17 8
3755 24 7
3755 34 1
3756 24 4
3757 38 1
3758 3 1
3759 38 1
3760 24 1
3761 10 1
3761 12 5
3761 14 6
3762 1 2
3762 2 27
3762 3 49
3762 34 78
3763 3 1
3764 38 1
3765 21 27
3765 22 17
3766 17 1
3767 31 1
3768 5 1
3768 9 1
3768 38 1
3769 31 1
3770 1 1
3770 2 12
3770 3 10
3770 26 1
3770 31 3
3770 34 7
3771 26 1
3772 18 1
3773 3 1
3774 10 1
3774 12 19
3774 13 1
3774 14 9
3774 24 2
3775 24 8
3776 18 51
3776 19 69
3776 20 31
3777 23 1
3777 24 5
3778 3 1
3779 2 1
3780 7 2
3780 8 3
3780 19 1
3781 38 1
3782 34 1
3783 19 1
3783 24 8
3784 4 12
3784 5 37
3784 38 56
3785 3 1
3786 17 1
3787 5 1
3787 24 1
3788 31 7
3789 21 1
3790 3 1
3791 15 10
3791 16 4
3791 17 4
3791 18 4
3791 19 6
3791 20 1
3791 24 9
3792 26 2
3793 34 1
3794 19 1
3795 24 1
3796 2 1
3797 31 1
3798 29 1
3799 9 54
3799 10 77
3799 11 48
3800 4 1
3800 28 1
3801 16 1
3801 18 1
3801 19 4
3801 34 1
3802 2 14
3802 3 6
3802 5 1
3802 34 14
3803 18 20
3803 19 23
3803 20 12
3803 29 2
3804 10 1
3805 18 6
3805 19 9
3805 20 1
3805 21 1
3806 4 1
3806 7 1
3806 38 1
3807 28 3
3807 34 1
3808 26 1
3809 3 1
3810 4 3
3810 5 38
3810 38 36
3811 21 19
3811 22 7
3812 21 6
3812 22 10
3812 38 1
3813 31 5
3814 19 1
3815 9 3
3815 10 8
3815 11 3
3816 5 1
3817 5 1
3818 34 1
3819 21 1
3820 21 1
3821 12 1
3822 12 1
3822 15 3
3822 16 5
3822 17 5
3822 19 5
3823 24 1
3823 31 7
3824 31 1
3825 5 3
3825 38 2
3826 5 1
3826 19 1
3827 4 1
3827 5 7
3827 24 1
3827 38 9
3828 5 1
3829 5 4
3829 38 2
3830 26 13
3831 38 1
3832 34 1
3833 31 4
3835 3 2
3836 29 1
3837 2 1
3837 19 1
3838 2 1
3839 23 2
3839 24 10
3839 38 1
3840 2 23
3840 3 36
3840 24 1
3840 28 4
3840 34 43
3841 24 1
3842 25 1
3842 26 10
3842 29 1
3842 34 1
3843 2 16
3843 3 14
3843 34 17
3844 34 1
3845 3 1
3845 24 7
3845 34 1
3846 3 1
3847 26 3
3848 38 1
3849 1 2
3849 2 22
3849 3 43
3849 12 1
3849 34 58
3850 4 2
3850 5 5
3850 38 8
3851 1 1
3851 2 10
3851 3 18
3851 29 1
3851 34 17
3852 8 1
3853 3 1
3854 24 5
3855 34 1
3856 23 2
3856 24 18
3857 9 18
3857 10 26
3857 11 8
3858 8 8
3859 4 1
3859 5 5
3859 38 2
3860 19 1
3860 24 8
3860 29 4
3861 24 1
3862 2 1
3862 19 1
3862 28 1
3862 34 1
3863 22 1
3864 31 9
3865 29 7
3866 1 1
3866 4 1
3866 38 2
3867 2 5
3867 3 4
3867 29 2
3867 34 8
3868 29 1
3869 24 1
3870 29 1
3871 24 2
3872 8 1
3873 22 1
3873 24 1
3874 38 1
3875 24 2
3876 3 1
3877 2 1
3878 7 2
3878 8 5
3879 21 1
3880 26 1
3880 28 1
3881 4 1
3882 21 6
3882 22 11
3883 5 1
3884 15 1
3885 29 4
3885 30 1
3886 24 1
3887 34 1
3888 19 1
3889 24 3
3890 2 4
3890 3 9
3890 28 3
3890 34 9
3891 8 1
3891 12 3
3891 14 3
3892 3 1
3893 12 1
3893 38 2
3894 31 1
3895 18 1
3895 38 1
3896 9 15
3896 10 23
3896 11 17
3896 34 1
3897 5 1
3897 28 1
3898 9 1
3899 4 7
3899 5 33
3899 38 31
3900 34 1
3901 5 1
3901 18 1
3902 29 2
3903 3 1
3903 19 1
3903 31 1
3904 29 1
3905 31 13
3905 38 1
3906 24 1
3907 18 1
3907 29 1
3908 21 4
3908 22 1
3909 22 1
3910 38 3
3911 24 1
3911 26 3
3912 24 11
3912 34 1
3913 4 1
3913 5 1
3914 24 3
3915 18 8
3915 19 11
3915 20 5
3916 31 1
3917 16 1
3918 29 23
3918 30 2
3919 2 13
3919 3 9
3919 18 1
3919 34 17
3920 28 2
3921 7 1
3921 29 1
3922 24 11
3923 29 5
3924 26 4
3924 29 1
3925 20 1
3926 34 1
3927 25 1
3927 26 1
3929 19 1
3930 3 1
3931 2 1
3931 10 1
3931 29 21
3931 30 1
3932 5 1
3932 24 23
3933 3 1
3934 14 1
3934 18 4
3934 19 4
3935 38 1
3936 8 1
3937 16 1
3938 3 1
3938 18 21
3938 19 19
3938 20 7
3939 34 1
3940 29 6
3940 31 3
3940 34 1
3941 7 1
3941 8 18
3941 31 1
3942 29 19
3942 30 2
3943 22 1
3944 12 1
3944 28 8
3945 7 1
3945 8 5
3946 15 15
3946 16 7
3946 17 12
3947 29 16
3947 30 1
3948 4 1
3949 10 1
3950 34 1
3951 31 1
3952 29 3
3952 30 1
3953 22 1
3953 24 4
3954 26 1
3955 10 1
3956 2 3
3956 3 17
3956 18 1
3956 21 4
3956 22 3
3956 34 15
3957 4 3
3957 5 36
3957 38 35
3958 24 5
3959 27 1
3959 28 3
3960 13 1
3960 18 19
3960 19 12
3960 20 1
3961 10 1
3962 5 1
3963 4 19
3963 5 58
3963 38 89
3964 19 1
3965 21 15
3965 22 6
3966 5 1
3966 21 32
3966 22 18
3967 5 1
3967 24 1
3968 24 4
3969 3 1
3970 17 1
3970 31 1
3971 4 4
3971 5 12
3971 38 14
3972 26 1
3973 34 4
3974 24 10
3975 28 1
3976 24 2
3977 18 1
3978 25 1
3978 26 5
3979 14 1
3980 34 1
3981 18 3
3981 19 1
3981 20 2
3982 3 5
3982 11 1
3982 34 7
3982 38 1
3983 20 1
3984 12 1
3984 24 1
3984 31 1
3985 5 1
3985 12 9
3985 13 1
3985 14 12
3985 18 2
3985 19 2
3985 20 1
3986 2 1
3987 31 5
3988 31 2
3989 28 1
3990 11 1
3990 21 5
3991 23 1
3991 24 16
3991 28 1
3992 7 1
3993 29 1
3994 25 1
3995 21 1
3995 22 1
3995 29 1
3996 26 1
3997 31 1
3998 7 3
3999 3 1
4000 22 1
4001 9 7
4001 10 4
4001 11 2
4001 26 1
4002 5 1
4002 24 14
4003 5 1
4003 29 2
4004 3 1
4004 8 1
4004 29 1
4005 2 5
4005 3 7
4005 34 6
4006 25 2
4007 4 4
4007 5 40
4007 21 5
4007 22 4
4007 38 40
4008 2 1
4009 3 1
4010 3 1
4010 9 4
4010 10 4
4010 11 5
4011 31 4
4012 22 1
4012 34 1
4013 24 1
4014 14 1
4015 31 1
4016 15 1
4016 34 1
4017 18 5
4017 19 4
4017 20 2
4018 2 5
4018 3 12
4018 5 1
4018 24 28
4018 28 1
4018 34 9
4019 2 1
4019 24 1
4020 29 4
4021 24 1
4022 31 7
4023 34 1
4024 15 1
4025 11 1
4026 21 1
4027 31 1
4028 18 1
4029 12 1
4030 38 1
4031 18 1
4031 28 4
4031 29 4
4032 1 1
4032 2 14
4032 3 21
4032 34 34
4033 18 5
4033 19 7
4033 20 4
4034 12 1
4035 19 1
4036 15 13
4036 16 12
4036 17 11
4036 18 15
4036 19 14
4036 20 7
4036 29 1
4037 5 1
4038 17 1
4039 2 1
4040 3 1
4041 2 1
4042 4 7
4042 5 26
4042 38 32
4043 9 9
4043 10 8
4043 11 6
4043 34 1
4044 28 6
4045 28 1
4045 31 1
4046 34 1
4047 2 8
4047 3 11
4047 34 13
4048 28 10
4049 4 5
4049 5 16
4049 26 1
4049 38 11
4050 29 6
4051 4 1
4051 5 6
4051 38 6
4052 3 1
4053 15 2
4053 16 1
4053 17 1
4054 24 6
4055 13 1
4055 14 1
4056 24 1
4056 29 1
4057 24 1
4058 28 1
4059 34 1
4060 1 1
4060 2 5
4060 3 6
4060 15 1
4060 34 6
4061 24 12
4062 5 1
4063 18 1
4063 22 1
4064 15 1
4065 24 1
4066 10 1
4066 12 16
4066 14 8
4067 7 8
4067 8 15
4067 15 9
4067 16 12
4067 17 6
4068 12 1
4069 31 3
4070 19 1
4071 34 1
4072 2 1
4072 3 1
4072 14 1
4072 18 52
4072 19 59
4072 20 20
4073 38 1
4074 19 1
4075 16 1
4076 29 4
4077 15 3
4077 16 2
4077 17 1
4078 34 1
4079 15 8
4079 16 6
4079 17 11
4080 18 1
4081 5 1
4082 38 1
4083 24 7
4084 2 1
4084 4 2
4084 5 3
4084 29 19
4084 30 1
4084 38 6
4085 2 1
4085 3 3
4085 22 1
4085 34 5
4086 18 1
4087 29 4
4088 38 1
4089 2 1
4090 18 22
4090 19 33
4090 20 10
4091 3 1
4092 24 4
4092 31 5
4093 3 1
4093 21 1
4093 22 2
4094 34 1
4095 9 14
4095 10 26
4095 11 16
4096 1 1
4096 2 13
4096 3 8
4096 34 12
4097 3 1
4097 7 1
4097 8 3
4098 12 4
4098 13 1
4098 14 3
4098 34 1
4099 29 1
4100 3 1
4101 3 1
4102 10 1
4102 31 24
4103 9 1
4104 26 1
4105 19 1
4106 18 1
4106 20 1
4107 7 1
4107 12 1
4107 31 2
4108 12 3
4108 14 2
4109 9 4
4109 10 8
4109 11 3
4110 17 1
4111 29 5
4111 34 1
4112 3 1
4112 21 1
4112 34 1
4113 10 1
4113 24 4
4113 26 6
4113 29 7
4113 34 1
4114 5 1
4114 38 1
4115 23 1
4115 24 25
4116 8 1
4117 11 1
4118 31 1
4119 29 9
4119 30 2
4119 38 1
4120 24 10
4120 29 16
4121 25 3
4121 26 15
4122 22 1
4123 20 1
4124 10 2
4124 11 1
4125 1 1
4125 2 10
4125 3 14
4125 28 6
4125 34 16
4126 3 1
4126 16 1
4127 2 16
4127 3 22
4127 24 13
4127 34 33
4128 14 1
4129 15 5
4129 16 4
4129 17 1
4129 18 3
4129 19 1
4129 31 1
4129 34 1
4130 38 1
4131 3 1
4131 18 1
4131 21 1
4132 19 1
4132 38 1
4133 38 1
4134 15 2
4134 16 2
4134 31 1
4134 38 1
4135 12 1
4136 4 1
4136 5 6
4136 38 6
4137 14 1
4138 5 1
4138 29 2
4139 21 1
4140 4 2
4140 5 24
4140 38 13
4141 9 1
4141 24 14
4142 14 1
4143 5 1
4144 8 1
4144 18 1
4144 29 1
4144 34 1
4145 12 100
4145 13 1
4145 14 48
4146 19 1
4147 29 2
4148 1 1
4148 2 1
4149 4 2
4149 5 12
4149 38 13
4150 38 1
4151 28 5
4151 31 1
4152 29 6
4153 34 1
4154 7 2
4154 8 2
4155 18 1
4156 38 1
4157 34 1
4158 5 1
4159 5 1
4160 29 20
4160 30 1
4161 14 1
4162 5 1
4163 24 1
4164 34 1
4165 28 2
4166 38 1
4167 19 1
4168 12 12
4168 14 5
4169 12 15
4169 14 11
4170 24 24
4170 38 1
4171 22 1
4172 28 2
4172 34 1
4172 38 1
4173 12 7
4173 14 3
4174 24 1
4175 2 14
4175 3 27
4175 34 37
4176 34 1
4177 2 1
4178 18 1
4179 1 1
4179 2 19
4179 3 22
4179 34 37
4180 34 1
4181 7 2
4181 8 2
4181 18 1
4182 19 1
4183 2 12
4183 3 18
4183 29 1
4183 34 24
4184 24 3
4184 25 1
4184 26 15
4185 24 8
4186 24 1
4187 24 3
4188 12 1
4189 24 1
4189 25 1
4189 26 9
4190 2 1
4190 29 19
4190 30 1
4190 34 1
4191 2 11
4191 3 7
4191 26 3
4191 31 2
4191 34 19
4192 2 1
4193 19 1
4194 34 1
4195 26 2
4196 3 1
4197 31 1
4198 26 1
4199 28 1
4200 2 3
4200 3 4
4200 34 3
4201 28 6
4202 4 1
4202 5 5
4202 19 1
4202 38 8
4203 18 13
4203 19 23
4203 20 1
4204 19 1
4205 3 1
4206 2 3
4206 3 5
4206 26 2
4206 29 3
4206 34 5
4207 3 2
4207 34 2
4208 28 4
4209 38 1
4210 21 1
4211 31 7
4211 38 1
4212 34 1
4213 24 1
4214 19 1
4215 4 3
4215 5 10
4215 21 1
4215 38 22
4216 5 1
4217 34 1
4218 2 4
4218 3 9
4218 29 13
4218 34 7
4218 38 1
4219 2 1
4220 14 1
4221 9 1
4222 10 1
4222 29 5
4223 18 1
4224 5 1
4224 12 1
4225 15 5
4225 16 4
4225 17 3
4225 28 1
4226 3 1
4227 18 6
4227 19 8
4227 20 2
4228 19 1
4229 18 1
4229 19 3
4229 21 1
4230 3 1
4230 15 1
4231 4 1
4231 7 1
4231 9 16
4231 10 45
4231 11 14
4231 29 1
4232 25 1
4232 29 2
4233 12 2
4233 14 1
4234 29 1
4235 4 1
4236 9 12
4236 10 18
4236 11 14
4236 18 11
4236 19 26
4236 20 7
4236 24 1
4236 34 1
4237 15 1
4238 31 5
4239 28 1
4239 29 1
4240 10 1
4241 1 1
4241 2 12
4241 3 35
4241 34 40
4242 38 1
4243 34 1
4244 34 1
4245 19 1
4245 26 1
4246 21 2
4247 3 1
4248 29 1
4249 1 1
4249 2 4
4249 3 6
4249 34 6
4250 2 1
4250 15 1
4251 29 1
4252 9 1
4253 21 1
4253 34 1
4254 18 27
4254 19 42
4254 20 16
4254 38 1
4255 20 1
4256 34 1
4257 1 1
4257 2 8
4257 3 16
4257 34 18
4258 29 5
4259 5 1
4259 29 1
4259 31 14
4260 24 6
4261 24 7
4262 38 1
4263 24 1
4264 3 1
4264 24 1
4264 26 1
4264 29 2
4265 1 1
4266 22 1
4267 4 1
4267 14 1
4267 24 14
4268 8 4
4269 28 3
4270 28 1
4271 2 21
4271 3 34
4271 34 46
4272 5 1
4273 7 3
4273 8 11
4274 24 4
4274 26 3
4275 31 2
4276 29 1
4277 8 1
4278 4 1
4278 5 10
4278 38 15
4279 26 7
4280 3 1
4280 5 1
4280 26 1
4280 29 10
4280 34 1
4281 21 1
4282 24 2
4283 3 1
4283 11 1
4283 19 1
4284 29 15
4285 8 1
4285 19 1
4286 3 1
4287 29 1
4288 24 1
4289 5 1
4290 1 1
4290 2 6
4290 3 14
4290 24 1
4290 34 30
4291 9 1
4292 7 1
4292 8 3
4293 2 3
4293 3 15
4293 21 1
4293 28 1
4293 34 7
4294 2 1
4294 9 5
4294 10 13
4294 11 9
4295 24 4
4296 4 2
4296 5 6
4296 38 9
4297 24 9
4298 2 9
4298 3 15
4298 31 1
4298 34 12
4299 10 1
4300 3 1
4301 34 1
4302 19 1
4303 17 1
4303 29 7
4303 31 1
4304 12 2
4304 14 2
4305 3 1
4306 29 1
4307 7 15
4307 8 15
4307 28 1
4308 21 3
4308 22 2
4309 18 3
4310 30 1
4311 15 1
4312 21 10
4312 22 6
4312 38 1
4313 12 1
4314 24 1
4314 26 2
4314 29 5
4315 24 1
4315 29 8
4316 29 3
4317 18 7
4317 21 2
4317 22 5
4318 18 1
4319 31 1
4320 15 2
4321 34 1
4322 15 1
4322 16 1
4323 31 13
4324 10 2
4325 9 19
4325 10 40
4325 11 28
4325 26 1
4326 29 1
4327 1 1
4327 2 10
4327 3 15
4327 34 22
4328 21 2
4328 22 3
4329 8 2
4330 34 1
4331 2 1
4332 2 1
4333 10 1
4334 5 1
4335 1 1
4335 2 24
4335 3 36
4335 34 36
4336 5 1
4336 24 4
4337 2 1
4338 34 1
4339 34 1
4340 26 6
4341 5 1
4342 16 1
4343 34 1
4344 5 1
4345 29 1
4346 7 1
4347 7 31
4347 8 36
4347 10 1
4348 11 1
4349 15 2
4349 17 2
4350 8 1
4351 7 8
4351 8 5
4351 24 1
4352 29 3
4353 29 1
4354 4 1
4354 5 4
4354 17 1
4354 38 2
4355 31 6
4356 26 3
4357 5 1
4358 29 1
4359 1 1
4359 2 7
4359 3 15
4359 34 17
4360 15 1
4361 24 1
4362 2 10
4362 3 32
4362 34 49
4363 3 1
4363 5 1
4363 19 1
4364 2 8
4364 3 6
4364 34 7
4365 14 1
4365 18 1
4366 34 1
4367 10 1
4368 5 1
4369 29 2
4370 24 3
4370 26 1
4371 26 4
4372 31 2
4373 2 6
4373 3 7
4373 34 9
4374 24 1
4375 3 1
4375 29 8
4376 3 1
4376 34 1
4377 19 1
4378 22 1
4379 14 1
4380 18 1
4381 15 15
4381 16 10
4381 17 9
4382 38 2
4383 21 5
4383 22 6
4384 4 1
4384 5 15
4384 38 7
4385 19 1
4386 19 2
4387 38 1
4388 1 3
4388 2 10
4388 3 14
4388 34 12
4389 4 1
4390 2 1
4390 3 2
4390 34 2
4391 38 1
4392 24 4
4393 38 1
4394 15 6
4394 17 1
4395 5 1
4396 7 2
4396 8 4
4396 38 1
4397 24 1
4398 34 1
4399 11 2
4400 2 1
4401 1 1
4401 2 16
4401 3 34
4401 31 11
4401 34 49
4402 2 1
4403 18 2
4404 5 7
4404 38 22
4405 4 5
4405 5 30
4405 29 2
4405 38 30
4406 24 2
4407 4 1
4408 9 1
4409 19 1
4410 12 1
4411 29 1
4412 22 1
4413 21 2
4413 22 2
4414 24 4
4415 2 2
4415 34 2
4415 38 1
4416 5 1
4416 38 2
4417 26 1
4418 31 3
4419 19 2
4419 20 1
4420 24 1
4420 34 1
4421 31 10
4422 17 3
4423 2 1
4423 4 4
4423 5 19
4423 38 15
4424 34 1
4425 29 2
4426 15 1
4426 17 1
4427 3 1
4427 34 1
4428 4 4
4428 5 36
4428 20 1
4428 38 50
4429 24 2
4430 4 1
4430 34 1
4431 29 1
4432 8 1
4433 5 1
4434 12 1
4434 15 2
4435 12 3
4436 12 1
4437 29 1
4438 29 6
4438 30 1
4439 12 11
4439 14 3
4439 19 1
4440 19 1
4440 20 1
4441 28 2
4442 19 1
4442 34 1
4443 3 1
4443 34 1
4443 38 1
4444 19 1
4445 34 1
4446 3 1
4446 5 1
4447 2 1
4448 21 1
4449 12 4
4449 14 1
4449 34 2
4450 4 1
4451 4 1
4452 29 3
4453 16 1
4454 4 1
4455 15 1
4455 16 3
4455 17 3
4456 7 14
4456 8 30
4457 14 1
4458 21 2
4459 24 1
4460 12 1
4460 16 1
4460 29 1
4461 29 1
4462 21 1
4462 22 1
4463 38 1
4464 11 1
4464 30 1
4465 8 1
4465 31 5
4466 15 1
4467 5 1
4467 38 2
4468 24 15
4468 29 1
4469 2 11
4469 3 20
4469 20 1
4469 34 19
4470 8 1
4471 34 1
4472 4 15
4472 5 59
4472 38 69
4473 24 10
4474 3 1
4474 24 12
4475 29 1
4476 2 17
4476 3 21
4476 4 1
4476 24 1
4476 34 39
4477 29 3
4478 2 1
4479 29 1
4480 2 20
4480 3 25
4480 34 23
4481 29 1
4482 29 8
4483 8 1
4483 24 31
4484 26 1
4485 3 1
4485 24 5
4485 38 1
4486 3 1
4486 29 12
4486 30 2
4487 19 1
4488 3 1
4489 21 1
4489 31 2
4490 5 1
4491 29 1
4492 28 3
4493 2 1
4494 38 1
4495 9 4
4495 10 6
4495 11 5
4496 12 3
4496 13 1
4496 14 2
4497 8 1
4498 5 1
4499 5 1
4500 20 1
4501 12 1
4502 9 1
4502 10 2
4502 11 1
4502 18 14
4502 19 20
4502 20 7
4502 30 1
4502 38 1
4503 2 2
4504 18 1
4505 3 1
4506 8 1
4507 24 1
4508 24 5
4509 29 1
4510 4 5
4510 5 10
4510 38 4
4511 4 1
4511 16 1
4512 28 2
4512 29 16
4512 30 2
4513 24 4
4514 38 1
4515 4 3
4515 5 10
4515 21 1
4515 24 1
4515 34 1
4515 38 8
4516 3 1
4516 12 5
4516 14 5
4516 18 1
4516 34 1
4517 17 1
4518 26 1
4518 29 1
4519 4 1
4520 3 1
4521 5 1
4521 8 1
4521 14 1
4521 15 1
4521 22 1
4521 28 1
4521 29 1
4521 34 1
4521 38 1
4522 2 1
4523 38 1
4524 24 4
4525 24 1
4526 8 1
4527 24 1
4528 7 3
4528 8 1
4529 3 1
4530 31 1
4531 8 1
4532 12 24
4532 14 13
4533 24 3
4534 2 6
4534 3 14
4534 34 12
4535 4 1
4536 24 1
4537 3 1
4538 10 1
4539 4 1
4540 18 1
4540 19 2
4540 20 1
4541 20 1
4542 4 12
4542 5 34
4542 19 1
4542 38 35
4543 3 1
4544 19 1
4545 5 1
4546 29 1
4546 38 1
4547 34 1
4548 38 1
4549 4 1
4550 7 1
4550 21 1
4550 24 14
4551 34 1
4552 21 1
4552 31 1
4553 12 31
4553 14 14
4553 26 3
4554 4 13
4554 5 35
4554 38 64
4555 3 1
4556 18 1
4556 19 9
4556 20 1
4556 38 1
4557 24 13
4558 2 2
4558 3 3
4558 34 1
4559 12 1
4560 19 1
4561 16 1
4561 18 2
4561 21 1
4562 21 1
4563 24 1
4564 18 10
4564 19 13
4564 20 8
4565 14 1
4566 5 1
4567 12 8
4567 14 1
4568 2 2
4568 3 4
4568 22 1
4568 34 5
4569 2 1
4569 19 1
4569 23 2
4569 24 32
4569 38 1
4570 24 1
4571 29 1
4572 12 4
4572 14 6
4572 34 1
4573 19 1
4574 4 2
4574 5 9
4574 38 13
4575 4 1
4576 29 1
4577 7 1
4577 11 1
4577 18 1
4578 29 14
4578 30 1
4579 34 1
4580 1 1
4580 2 4
4580 3 5
4580 24 2
4580 34 3
4581 7 4
4581 8 17
4581 19 1
4581 24 2
4582 9 3
4582 10 2
4582 11 4
4583 4 4
4583 5 22
4583 38 29
4584 24 1
4585 2 6
4585 3 12
4585 34 14
4586 5 1
4586 34 1
4587 34 1
4588 10 1
4589 7 1
4590 23 1
4590 24 19
4590 38 1
4591 26 1
4592 24 5
4593 29 15
4593 30 3
4593 38 1
4594 22 1
4595 8 1
4596 9 9
4596 10 13
4596 11 9
4597 31 1
4598 10 1
4598 18 33
4598 19 42
4598 20 12
4599 4 18
4599 5 72
4599 38 92
4600 38 1
4601 7 1
4602 34 1
4603 2 2
4603 8 1
4603 18 1
4603 22 1
4603 29 2
4603 34 1
4603 38 1
4604 38 1
4605 5 1
4605 29 1
4605 30 1
4606 29 9
4606 30 1
4606 34 1
4607 21 1
4608 18 15
4608 19 23
4608 20 14
4609 2 4
4609 3 5
4609 34 2
4610 19 1
4610 24 23
4611 4 1
4611 15 2
4611 17 1
4611 20 1
4612 9 6
4612 10 13
4612 11 6
4612 18 1
4612 34 1
4613 38 1
4614 2 1
4615 2 3
4615 3 2
4615 34 5
4616 5 1
4617 18 1
4617 24 27
4618 3 1
4619 24 1
4620 2 1
4621 12 1
4622 24 24
4623 20 1
4624 8 1
4625 9 1
4625 18 15
4625 19 20
4625 20 7
4626 5 1
4627 30 1
4628 4 1
4628 5 8
4628 20 1
4628 38 8
4629 38 1
4630 24 14
4631 28 1
4632 4 6
4632 5 23
4632 38 31
4633 5 1
4633 9 6
4633 10 6
4633 11 5
4634 29 1
4635 1 1
4635 2 10
4635 3 15
4635 29 1
4635 31 11
4635 34 32
4636 18 1
4636 21 11
4636 22 11
4637 4 3
4637 5 22
4637 38 22
4638 24 1
4639 8 1
4639 9 1
4639 29 2
4640 24 1
4641 29 6
4641 34 1
4642 2 17
4642 3 31
4642 34 57
4643 2 1
4644 3 2
4644 34 5
4645 29 1
4646 31 1
4647 7 1
4647 8 3
4647 34 1
4648 19 2
4649 7 6
4649 8 10
4650 10 1
4651 31 2
4652 24 1
4653 21 1
4654 16 1
4655 15 25
4655 16 15
4655 17 17
4655 38 1
4656 29 4
4657 9 2
4658 2 3
4658 3 4
4658 22 1
4658 34 6
4659 34 1
4660 4 1
4660 31 4
4661 19 1
4662 24 1
4663 2 1
4663 3 3
4663 34 2
4664 26 1
4665 16 1
4666 10 1
4666 11 1
4667 20 1
4668 21 2
4668 34 1
4669 7 1
4669 29 37
4670 34 1
4671 2 1
4672 2 2
4672 3 1
4672 34 2
4673 5 3
4674 29 1
4675 21 1
4676 12 1
4676 26 4
4676 29 11
4677 28 3
4678 4 10
4678 5 33
4678 38 38
4679 10 1
4680 29 15
4680 30 2
4681 19 1
4682 34 1
4683 2 9
4683 3 11
4683 19 1
4683 34 7
4684 31 2
4685 21 1
4686 11 1
4687 18 1
4687 19 1
4687 29 1
4688 28 1
4689 1 1
4689 2 7
4689 3 11
4689 18 1
4689 34 17
4690 29 2
4691 22 1
4691 24 1
4692 26 5
4693 14 1
4694 5 1
4694 24 15
4694 34 1
4695 1 1
4695 2 10
4695 3 21
4695 8 1
4695 20 1
4695 34 17
4696 3 1
4696 12 1
4696 14 1
4696 20 2
4696 24 1
4696 26 1
4696 34 3
4696 38 1
4697 34 1
4698 12 14
4698 13 1
4698 14 5
4699 15 1
4699 31 1
4700 3 1
4701 4 2
4701 5 7
4701 38 6
4702 19 1
4703 12 1
4704 20 1
4704 29 4
4705 26 1
4706 9 7
4706 10 13
4706 11 7
4707 3 2
4707 15 1
4707 24 1
4707 34 3
4707 38 2
4708 10 1
4709 24 1
4710 31 1
4711 2 1
4711 3 2
4711 34 3
4712 18 2
4712 19 2
4712 24 3
4713 18 1
4713 19 2
4713 20 1
4713 38 1
4714 21 1
4715 5 1
4716 38 1
4717 22 1
4718 24 1
4719 2 1
4720 20 1
4721 5 1
4722 2 15
4722 3 32
4722 34 42
4723 7 1
4724 34 1
4725 18 1
4725 19 5
4725 20 2
4726 24 1
4727 8 1
4728 24 4
4729 34 1
4730 18 1
4731 5 1
4731 18 54
4731 19 72
4731 20 24
4731 29 1
4732 19 1
4733 18 17
4733 19 31
4733 20 4
4734 21 7
4734 22 4
4735 19 1
4736 18 35
4736 19 49
4736 20 16
4736 34 1
4737 24 1
4738 9 17
4738 10 33
4738 11 13
4738 12 1
4738 29 10
4738 30 1
4738 34 1
4739 2 9
4739 3 11
4739 22 1
4739 34 45
4740 9 30
4740 10 38
4740 11 41
4741 2 1
4741 3 1
4741 10 1
4741 11 1
4741 26 2
4742 38 1
4743 3 1
4744 34 1
4745 19 1
4745 28 4
4746 11 1
4747 12 4
4747 14 3
4748 4 5
4748 5 22
4748 38 19
4749 5 2
4749 38 2
4750 38 1
4751 5 1
4751 7 1
4751 38 2
4752 2 11
4752 3 16
4752 34 16
4753 3 1
4754 28 1
4755 22 1
4756 38 1
4757 31 11
4758 2 1
4758 3 1
4758 5 1
4758 9 1
4758 38 1
4759 38 1
4760 3 1
4760 10 1
4761 25 3
4761 26 6
4761 29 10
4761 30 1
4762 2 9
4762 3 11
4762 34 18
4762 38 2
4763 4 1
4764 7 1
4765 8 1
4765 31 1
4765 34 1
4766 4 2
4766 5 18
4766 38 14
4767 38 1
4768 25 1
4768 26 1
4769 16 1
4770 21 1
4771 2 1
4772 4 1
4773 3 1
4774 1 2
4774 2 19
4774 3 43
4774 34 63
4775 5 1
4775 12 1
4775 20 1
4776 18 1
4776 24 1
4776 38 1
4777 38 1
4778 20 1
4778 28 1
4779 18 3
4779 19 1
4780 7 1
4780 8 2
4780 18 1
4780 28 1
4781 31 7
4782 2 1
4782 3 7
4782 34 13
4783 5 1
4784 12 1
4784 14 2
4785 34 1
4786 5 13
4786 38 20
4787 34 1
4788 4 9
4788 5 55
4788 38 56
4789 19 1
4790 21 1
4791 34 1
4792 7 2
4792 8 5
4792 20 1
4793 29 6
4793 30 2
4794 11 1
4794 12 1
4795 29 1
4796 8 1
4797 5 1
4798 2 9
4798 3 22
4798 34 24
4799 18 17
4799 19 25
4799 20 11
4800 29 4
4800 34 1
4801 7 7
4801 8 10
4802 2 1
4802 3 2
4802 28 4
4803 16 1
4804 21 8
4804 22 4
4805 4 1
4806 1 1
4806 2 3
4806 3 3
4806 12 1
4806 24 6
4806 34 11
4807 2 1
4807 21 5
4808 38 1
4809 18 1
4809 24 2
4810 2 1
4811 21 1
4812 19 1
4813 12 5
4813 14 3
4814 9 5
4814 10 7
4814 11 3
4815 19 1
4816 10 1
4816 21 59
4816 22 32
4816 30 1
4817 24 24
4818 18 2
4818 19 2
4818 20 1
4819 15 1
4819 16 1
4819 38 1
4820 12 1
4821 15 1
4822 12 1
4823 21 1
4824 24 4
4825 24 2
4826 29 2
4827 5 1
4828 8 1
4828 9 2
4828 10 2
4828 11 1
4829 12 26
4829 13 1
4829 14 23
4829 38 1
4830 28 1
4831 10 1
4831 11 2
4832 24 8
4833 38 1
4834 5 1
4834 18 1
4834 20 1
4835 12 1
4835 34 1
4836 19 3
4837 14 1
4838 34 1
4839 21 1
4840 24 1
4841 28 5
4841 29 1
4842 5 1
4843 34 1
4844 5 1
4845 19 1
4845 24 3
4846 9 17
4846 10 18
4846 11 16
4846 34 1
4847 5 1
4847 31 7
4848 2 21
4848 3 32
4848 34 40
4849 19 1
4850 28 4
4851 25 1
4852 34 1
4853 7 1
4853 14 1
4854 22 1
4854 29 6
4855 9 1
4855 29 9
4855 30 2
4856 2 1
4857 24 1
4858 10 1
4859 10 1
4860 21 1
4860 38 1
4861 34 1
4862 3 1
4863 10 1
4864 29 1
4865 29 6
4866 8 2
4866 34 1
4867 5 1
4867 18 1
4867 21 1
4867 22 2
4868 5 1
4868 17 1
4868 28 1
4869 8 1
4870 9 4
4870 10 1
4870 18 3
4870 19 7
4870 20 1
4871 12 1
4872 20 1
4873 5 1
4873 16 1
4874 22 1
4875 5 1
4876 18 1
4877 10 1
4878 24 1
4879 18 1
4880 19 1
4880 31 1
4881 31 4
4882 19 2
4883 2 1
4884 7 5
4884 8 2
4885 15 1
4885 23 1
4885 24 5
4885 38 1
4886 26 2
4886 38 1
4887 18 2
4888 29 2
4889 17 1
4890 29 1
4891 3 1
4892 29 2
4893 18 1
4894 29 1
4895 2 15
4895 3 12
4895 22 1
4895 34 27
4896 38 3
4897 26 1
4898 34 1
4899 12 23
4899 13 2
4899 14 22
4900 28 2
4901 19 1
4902 4 1
4902 5 3
4902 38 4
4903 34 1
4904 7 1
4904 16 1
4905 26 3
4906 19 1
4907 21 1
4907 29 11
4908 21 10
4908 22 11
4909 38 1
4910 20 1
4911 14 1
4912 9 1
4913 26 1
4913 29 1
4914 12 4
4914 13 2
4914 14 3
4915 12 8
4915 14 1
4916 38 1
4917 19 1
4918 3 1
4919 28 1
4920 24 1
4921 38 1
4922 22 1
4923 4 1
4923 10 1
4923 18 1
4924 17 1
4925 4 2
4925 5 12
4925 34 1
4925 38 23
4926 34 1
4927 12 1
4928 21 5
4928 22 1
4929 29 14
4929 30 3
4930 19 1
4930 38 1
4931 3 1
4931 29 27
4931 30 2
4932 29 3
4933 34 1
4934 8 1
4935 18 1
4935 21 1
4936 16 1
4937 20 2
4938 26 1
4938 28 6
4939 3 1
4939 5 1
4939 26 1
4940 8 1
4940 34 1
4941 15 1
4941 29 1
4942 24 9
4942 28 3
4943 10 1
4944 12 8
4944 14 6
4945 3 1
4945 4 1
4945 5 13
4945 21 1
4945 38 14
4946 11 1
4947 34 1
4948 24 1
4949 22 1
4950 10 2
4951 24 2
4952 18 1
4953 4 8
4953 5 43
4953 34 1
4953 38 41
4954 19 1
4955 18 1
4955 24 6
4956 24 2
4957 38 1
4958 11 1
4959 3 1
4960 18 1
4960 29 1
4961 19 1
4962 3 1
4963 1 2
4963 2 8
4963 3 29
4963 24 2
4963 34 36
4964 19 1
4965 3 1
4965 18 30
4965 19 13
4965 20 3
4965 34 1
4966 7 2
4966 8 1
4967 26 2
4968 29 10
4968 30 1
4969 18 1
4970 12 2
4971 18 1
4972 28 1
4973 24 7
4974 3 1
4975 24 1
4976 2 2
4976 5 2
4976 12 1
4976 19 2
4976 24 1
4976 34 1
4977 24 2
4978 3 1
4978 7 1
4978 20 1
4979 28 2
4980 5 1
4980 24 21
4981 31 5
4982 28 1
4983 24 6
4984 8 1
4985 2 7
4985 3 5
4985 34 14
4985 38 1
4986 2 1
4986 3 1
4986 22 1
4986 24 1
4986 34 3
4986 38 1
4987 9 1
4988 34 1
4989 4 1
4989 5 7
4989 10 1
4989 18 2
4989 19 2
4989 20 2
4989 38 10
4990 2 1
4990 3 2
4990 34 8
4991 5 4
4991 38 9
4992 4 4
4992 5 16
4992 38 19
4993 5 1
4994 3 1
4995 4 4
4995 5 35
4995 38 33
4996 29 21
4996 30 2
4997 26 4
4997 29 6
4997 30 1
4998 19 1
4999 29 1
5000 12 9
5000 13 2
5000 14 5
5001 12 2
5001 14 2
5001 18 7
5001 19 5
5001 20 1
5002 31 7
5003 34 1
5004 24 14
5005 29 1
5006 29 1
5007 17 1
5007 20 1
5008 12 1
5009 19 1
5010 22 1
5011 2 1
5011 3 2
5011 16 1
5011 34 7
5012 29 12
5012 30 1
5013 29 1
5014 5 1
5014 7 1
5014 8 1
5014 38 2
5015 24 5
5016 34 1
5017 12 12
5017 14 2
5017 18 2
5017 19 7
5017 20 3
5017 31 1
5017 38 1
5018 22 1
5018 28 1
5018 29 2
5019 24 6
5020 8 1
5020 21 4
5020 22 2
5021 25 1
5021 26 10
5022 24 1
5023 24 1
5023 28 4
5024 22 1
5025 3 1
5026 17 1
5026 29 3
5027 34 1
5028 24 13
5029 26 1
5030 38 1
5031 34 1
5032 24 9
5033 12 1
5033 29 20
5034 24 1
5035 34 1
5036 5 1
5037 24 1
5037 26 12
5038 5 1
5038 19 1
5039 21 1
5040 19 1
5041 25 1
5042 2 4
5042 3 7
5042 34 12
5043 19 1
5043 24 5
5044 34 1
5045 2 5
5045 3 15
5045 34 18
5046 2 1
5046 7 1
5047 29 1
5047 31 1
5048 26 1
5048 31 1
5049 18 1
5049 31 3
5050 8 1
5051 34 1
5052 4 1
5053 19 1
5054 9 6
5054 10 21
5054 11 11
5054 18 1
5055 21 2
5055 22 1
5056 4 1
5056 9 1
5057 4 3
5057 5 9
5057 38 15
5058 9 1
5059 12 1
5060 15 1
5061 2 3
5061 3 2
5061 34 3
5062 21 1
5062 22 1
5062 31 4
5063 11 1
5064 17 1
5065 11 1
5066 2 1
5066 3 7
5066 34 7
5067 10 1
5068 26 3
5069 5 1
5070 24 1
5071 21 14
5071 22 7
5072 15 1
5072 16 2
5074 3 1
5075 18 1
5076 24 1
5077 24 1
5078 8 1
5079 24 1
5080 29 6
5080 30 1
5080 38 1
5081 34 1
5082 2 3
5082 3 12
5082 28 7
5082 34 17
5083 2 10
5083 3 30
5083 34 28
5084 15 1
5084 16 1
5085 34 1
5086 12 1
5086 24 6
5087 2 1
5087 10 1
5087 21 1
5088 10 1
5089 4 1
5089 18 1
5089 19 1
5089 20 2
5090 29 17
5090 30 2
5091 3 5
5091 34 3
5092 19 1
5092 24 18
5092 34 1
5093 21 6
5093 22 3
5094 23 1
5094 24 16
5095 4 9
5095 5 28
5095 8 1
5095 38 48
5096 20 1
5096 24 13
5096 29 27
5096 30 2
5096 31 5
5097 8 1
5098 4 6
5098 5 19
5098 38 25
5099 9 1
5099 10 1
5100 2 1
5100 4 1
5100 28 5
5101 34 1
5102 19 1
5103 7 23
5103 8 27
5103 15 1
5104 5 1
5105 38 1
5106 24 1
5107 29 3
5108 5 1
5108 24 8
5108 38 1
5109 19 1
5110 4 1
5110 29 10
5110 30 1
5110 38 1
5111 4 13
5111 5 65
5111 38 53
5112 22 1
5113 29 2
5114 9 7
5114 10 24
5114 11 13
5115 26 1
5116 10 1
5117 5 1
5118 21 1
5119 10 2
5120 1 1
5120 2 10
5120 3 26
5120 18 1
5120 34 32
5121 28 1
5122 19 1
5123 15 7
5123 16 5
5123 17 4
5123 31 1
5124 3 1
5125 34 1
5126 24 3
5126 29 15
5126 30 1
5126 34 1
5127 18 1
5127 28 1
5128 18 1
5129 15 1
5130 2 1
5131 24 1
5132 4 6
5132 5 38
5132 38 30
5133 8 1
5134 24 10
5135 38 1
5136 38 1
5137 34 1
5138 28 1
5139 8 1
5139 31 4
5140 29 11
5141 34 2
5142 29 4
5143 19 1
5143 20 1
5144 12 9
5144 13 1
5144 14 3
5145 3 1
5146 29 8
5146 38 1
5147 12 1
5148 2 2
5148 3 1
5148 24 1
5148 34 1
5149 12 7
5149 13 1
5149 14 3
5149 18 1
5150 38 1
5151 8 1
5152 18 6
5152 19 6
5152 20 2
5153 17 1
5154 12 2
5154 14 3
5155 2 1
5156 24 4
5157 2 3
5157 3 3
5157 34 6
5158 34 1
5159 34 1
5160 15 15
5160 16 9
5160 17 3
5161 29 2
5162 14 1
5163 34 1
5164 24 2
5165 18 40
5165 19 54
5165 20 32
5166 2 1
5166 3 1
5166 34 4
5167 24 1
5168 26 1
5169 31 1
5170 34 1
5171 9 1
5172 29 1
5173 29 1
5174 8 1
5175 24 4
5176 14 1
5177 8 1
5177 22 1
5178 15 1
5178 16 1
5178 18 1
5178 19 1
5178 20 1
5178 29 1
5179 2 2
5180 21 1
5181 8 1
5181 24 2
5182 4 3
5182 5 17
5182 12 5
5182 14 3
5182 18 27
5182 19 28
5182 20 6
5182 38 17
5183 8 1
5183 24 1
5183 38 3
5184 19 1
5185 5 7
5185 38 6
5186 5 1
5187 3 1
5187 11 1
5188 24 1
5189 18 17
5189 19 21
5189 20 10
5190 24 1
5191 18 13
5191 19 13
5191 20 4
5192 19 1
5193 38 1
5194 3 1
5194 29 1
5195 19 1
5196 28 1
5197 34 1
5198 28 4
5199 2 10
5199 3 18
5199 34 14
5200 20 1
5201 18 1
5201 23 1
5201 24 1
5202 21 1
5203 12 1
5204 19 1
5204 29 3
5205 14 2
5206 38 1
5207 24 2
5207 34 3
5208 4 1
5208 24 1
5209 19 2
5209 20 2
5210 31 1
5211 12 2
5211 34 1
5212 17 1
5212 24 2
5213 4 5
5213 5 6
5213 38 15
5214 4 1
5214 5 1
5214 24 1
5215 31 1
5216 21 15
5216 22 4
5217 38 1
5218 4 4
5218 5 19
5218 38 26
5219 24 3
5220 21 9
5220 22 6
5221 23 1
5221 24 13
5222 29 1
5223 2 4
5223 3 10
5223 34 16
5224 3 1
5225 1 1
5225 2 14
5225 3 24
5225 34 30
5226 7 1
5226 18 4
5226 19 6
5226 20 3
5227 7 2
5228 18 1
5229 18 1
5230 5 1
5230 18 1
5230 31 20
5231 15 1
5231 16 1
5232 4 2
5232 5 6
5232 38 8
5233 5 1
5234 31 1
5235 2 1
5236 8 2
5236 34 1
5237 2 1
5238 2 15
5238 3 24
5238 34 21
5239 24 1
5240 2 2
5240 3 2
5240 34 10
5241 11 2
5241 21 1
5241 25 1
5241 26 4
5242 23 1
5242 24 29
5242 29 2
5243 4 5
5243 5 23
5243 38 25
5244 24 1
5244 28 5
5245 9 12
5245 10 15
5245 11 12
5246 3 1
5247 21 1
5248 18 1
5249 21 1
5250 4 2
5250 5 8
5250 13 1
5250 19 1
5250 38 10
5251 3 1
5251 29 1
5252 9 3
5252 10 6
5252 11 5
5252 18 22
5252 19 14
5252 20 13
5252 22 1
5253 21 1
5254 9 1
5254 11 1
5254 21 1
5255 2 2
5255 3 1
5255 34 2
5256 2 1
5257 18 1
5258 22 1
5259 18 1
5260 29 2
5261 34 1
5262 28 1
5263 3 1
5263 21 10
5263 22 7
5264 5 1
5264 21 14
5264 22 9
5265 5 1
5266 29 1
5267 33 1
5268 24 7
5269 5 13
5269 38 12
5270 28 1
5271 9 1
5271 10 1
5272 24 1
5273 26 1
5274 11 1
5274 14 1
5274 17 1
5274 24 1
5274 26 1
5275 21 8
5275 22 1
5276 21 1
5277 12 3
5277 14 1
5278 20 1
5279 5 1
5279 29 1
5280 25 1
5280 26 7
5280 31 4
5281 4 1
5282 24 5
5283 4 1
5284 4 2
5284 5 21
5284 38 15
5285 18 20
5285 19 36
5285 20 12
5285 21 2
5286 3 1
5287 9 1
5288 5 1
5289 9 1
5290 29 3
5291 7 14
5291 8 12
5292 2 1
5293 18 1
5294 28 2
5295 38 1
5296 18 6
5296 19 9
5296 20 5
5297 12 1
5298 7 1
5298 8 2
5298 18 2
5298 19 3
5298 20 2
5298 21 14
5298 22 4
5299 34 1
5300 9 1
5301 7 1
5301 18 1
5302 20 1
5302 28 2
5303 3 1
5303 19 2
5304 22 3
5305 23 1
5305 24 3
5306 9 4
5306 10 10
5306 11 6
5307 8 1
5307 29 9
5307 30 1
5308 17 1
5309 24 13
5310 29 10
5311 3 1
5312 38 1
5313 2 1
5313 4 14
5313 5 36
5313 15 1
5313 24 13
5313 29 4
5313 38 37
5314 29 1
5315 34 1
5316 9 8
5316 10 16
5316 11 10
5317 5 1
5318 11 1
5319 5 1
5320 29 1
5321 8 1
5322 4 2
5322 5 7
5322 38 21
5323 2 1
5323 26 6
5324 4 1
5324 5 2
5324 38 1
5325 10 1
5326 24 1
5327 31 8
5328 18 18
5328 19 29
5328 20 1
5329 24 5
5329 31 2
5330 19 1
5330 26 11
5331 10 1
5331 29 1
5331 34 1
5332 9 2
5332 10 10
5332 11 8
5333 29 7
5333 30 1
5334 26 11
5335 24 1
5335 29 10
5336 14 1
5337 34 1
5338 2 8
5338 3 8
5338 5 1
5338 29 5
5338 30 1
5338 34 11
5339 1 1
5339 2 14
5339 3 27
5339 34 22
5340 34 1
5341 26 1
5342 5 1
5343 4 1
5343 24 1
5344 21 4
5344 22 2
5345 5 1
5345 24 7
5345 26 1
5346 7 1
5346 25 3
5346 26 11
5347 3 1
5348 4 5
5348 5 20
5348 12 8
5348 14 1
5348 38 32
5349 11 1
5350 22 1
5350 25 3
5350 26 14
5350 27 1
5350 28 7
5351 18 1
5351 31 1
5352 2 1
5353 2 1
5353 3 1
5354 24 4
5355 34 1
5356 3 1
5356 7 2
5356 34 1
5357 19 1
5358 2 11
5358 3 9
5358 34 18
5358 38 1
5359 19 1
5360 21 2
5361 2 1
5361 3 4
5361 34 5
5362 34 1
5363 2 2
5363 3 5
5363 34 4
5364 25 1
5364 26 11
5365 5 4
5365 18 1
5365 19 4
5365 20 1
5365 38 3
5366 18 1
5367 24 1
5368 11 1
5369 5 1
5370 7 13
5370 8 18
5370 38 1
5371 9 2
5371 10 2
5371 11 1
5371 34 1
5372 29 1
5372 34 1
5373 2 5
5373 3 8
5373 34 17
5374 24 1
5375 10 1
5376 19 1
5377 3 1
5377 28 8
5378 9 3
5378 10 6
5378 11 3
5378 14 1
5378 19 2
5378 20 1
5379 18 37
5379 19 38
5379 20 18
5380 19 1
5381 5 1
5382 24 6
5383 29 1
5384 19 1
5385 31 2
5386 2 1
5386 3 5
5386 34 5
5387 28 2
5388 7 1
5388 24 6
5389 3 1
5389 9 1
5389 38 1
5390 2 1
5391 24 8
5392 2 12
5392 3 5
5392 29 2
5392 34 14
5393 21 2
5394 18 8
5394 19 10
5394 20 5
5395 4 1
5395 34 1
5395 38 1
5396 18 1
5396 24 1
5397 2 1
5397 26 5
5398 18 23
5398 19 34
5398 20 16
5399 4 1
5400 9 4
5400 10 7
5400 11 3
5401 21 12
5401 22 8
5402 29 2
5403 20 1
5404 34 1
5405 30 1
5405 31 1
5405 34 1
5406 28 4
5406 34 1
5407 3 1
5408 24 1
5409 14 2
5410 23 1
5411 24 18
5412 3 1
5413 9 13
5413 10 27
5413 11 16
5413 38 1
5414 4 6
5414 5 15
5414 24 20
5414 38 29
5415 34 1
5416 31 1
5417 7 1
5417 8 4
5417 9 1
5417 10 1
5417 11 1
5418 3 1
5419 4 1
5421 9 7
5421 10 12
5421 11 11
5422 31 2
5423 28 1
5424 18 1
5425 5 3
5425 38 2
5426 24 7
5426 34 1
5427 24 1
5428 19 1
5428 21 9
5428 22 7
5429 22 1
5430 4 2
5430 5 32
5430 38 30
5431 25 1
5431 28 3
5432 26 1
5432 29 1
5433 2 1
5434 29 4
5434 30 1
5435 1 1
5435 3 2
5435 28 1
5436 29 1
5437 7 1
5437 29 18
5438 3 1
5439 3 1
5439 19 1
5439 21 25
5439 22 17
5440 22 1
5441 24 8
5442 4 4
5442 5 8
5442 38 19
5443 10 2
5443 11 1
5443 15 1
5444 25 1
5444 26 3
5445 15 8
5445 16 5
5445 17 5
5446 38 1
5447 34 1
5448 38 1
5449 24 9
5450 28 1
5451 31 1
5452 7 17
5452 8 16
5453 19 1
5454 18 17
5454 19 16
5454 20 4
5454 38 1
5455 31 3
5456 3 1
5457 24 15
5457 29 3
5457 30 1
5458 7 1
5459 1 1
5459 2 11
5459 3 17
5459 34 13
5460 20 1
5460 34 1
5461 15 1
5461 38 1
5462 31 1
5463 3 1
5463 8 1
5463 18 1
5463 29 1
5463 38 1
5464 38 1
5465 17 1
5466 19 1
5466 24 9
5467 10 1
5467 15 1
5468 3 1
5468 5 1
5468 23 1
5468 24 4
5468 25 2
5468 26 46
5469 24 1
5470 3 1
5471 18 2
5471 19 1
5472 9 8
5472 10 13
5472 11 6
5473 10 1
5474 10 1
5475 19 1
5476 2 2
5476 3 10
5476 11 1
5476 34 7
5477 3 1
5477 24 1
5477 29 1
5478 4 4
5478 5 16
5478 10 1
5478 38 22
5479 19 1
5480 5 1
5481 5 1
5481 31 4
5482 29 1
5483 12 1
5484 19 1
5485 18 2
5485 19 2
5485 20 1
5486 28 4
5487 38 1
5488 26 10
5489 26 1
5490 19 1
5491 28 3
5492 24 1
5493 1 1
5493 2 6
5493 3 5
5493 34 8
5494 18 1
5495 23 1
5495 24 26
5496 29 11
5497 24 1
5498 24 1
5499 34 1
5500 3 1
5501 20 1
5502 34 1
5503 2 1
5504 15 3
5504 16 1
5504 17 1
5505 1 1
5505 2 11
5505 3 12
5505 34 37
5506 24 2
5506 29 33
5506 30 5
5507 5 1
5508 26 1
5509 5 1
5510 19 1
5511 2 1
5511 24 1
5512 5 1
5512 14 1
5512 25 1
5512 26 5
5513 24 1
5513 29 6
5513 38 1
5514 4 1
5514 5 2
5515 2 1
5516 24 7
5517 29 1
5518 4 1
5519 21 1
5520 26 7
5521 34 2
5522 1 1
5522 2 19
5522 3 41
5522 34 63
5523 24 1
5524 24 1
5525 4 6
5525 5 14
5525 38 17
5526 18 2
5526 19 2
5526 20 3
5527 24 1
5528 15 4
5528 16 3
5528 17 3
5529 18 1
5530 34 1
5531 34 1
5532 29 5
5532 34 1
5533 3 1
5534 18 3
5535 5 1
5536 24 5
5537 3 1
5538 3 1
5539 24 1
5540 5 1
5540 18 1
5541 3 2
5541 5 1
5541 11 1
5541 24 2
5541 26 1
5541 29 1
5541 34 1
5542 29 1
5543 34 1
5544 31 10
5545 31 4
5546 2 1
5546 15 1
5547 28 1
5548 9 3
5548 11 2
5549 1 1
5549 2 11
5549 3 20
5549 34 27
5550 5 1
5551 24 1
5552 18 1
5552 19 2
5552 21 1
5552 38 1
5553 28 5
5554 12 1
5554 19 1
5554 29 2
5554 34 1
5554 38 1
5555 19 1
5556 11 1
5556 38 1
5557 2 1
5557 3 3
5557 5 1
5557 18 1
5557 22 2
5557 24 3
5557 29 4
5557 34 2
5558 10 1
5558 18 13
5558 19 24
5558 20 5
5559 12 3
5559 14 2
5560 4 1
5560 10 1
5560 11 1
5560 20 1
5560 34 1
5561 24 2
5562 2 1
5562 31 1
5563 9 1
5563 31 1
5564 29 2
5565 2 1
5566 12 1
5567 2 4
5567 3 6
5567 24 1
5567 34 8
5568 3 1
5569 12 25
5569 13 2
5569 14 21
5569 29 1
5570 3 1
5571 26 1
5572 18 26
5572 19 31
5572 20 13
5572 29 1
5573 12 1
5573 14 2
5573 20 1
5574 38 1
5575 29 7
5576 29 1
5577 24 1
5578 24 14
5579 28 1
5580 3 1
5581 10 1
5582 25 2
5582 26 9
5583 10 1
5583 11 1
5584 2 1
5585 24 3
5586 8 9
5587 34 1
5588 4 1
5589 21 1
5590 3 1
5590 22 1
5591 20 1
5591 29 1
5592 7 1
5593 28 1
5594 38 1
5595 21 1
5595 29 1
5596 12 1
5596 14 1
5597 1 1
5597 2 5
5597 3 11
5597 34 20
5598 31 8
5598 33 1
5599 4 1
5600 24 7
5601 24 2
5602 29 1
5603 4 5
5603 5 18
5603 18 25
5603 19 34
5603 20 15
5603 38 15
5604 26 1
5604 31 6
5605 22 1
5606 38 1
5607 16 1
5607 17 1
5608 12 1
5609 5 2
5609 24 1
5610 38 1
5611 5 1
5611 7 2
5611 8 1
5611 14 2
5611 29 1
5612 3 1
5612 24 8
5613 2 9
5613 3 14
5613 34 18
5614 3 1
5614 34 1
5615 4 6
5615 5 14
5615 7 1
5615 8 7
5615 38 7
5616 26 5
5617 29 1
5617 30 1
5618 10 1
5619 31 1
5620 8 1
5620 19 1
5620 28 4
5621 31 1
5622 2 3
5622 3 2
5622 34 4
5623 7 1
5624 28 5
5624 31 4
5625 9 5
5625 10 8
5625 11 6
5625 12 1
5626 12 1
5626 18 1
5627 31 9
5627 34 1
5628 2 1
5629 27 1
5629 28 1
5630 2 11
5630 3 23
5630 15 1
5630 34 26
5631 24 1
5631 29 1
5631 31 5
5632 5 1
5633 5 1
5634 15 7
5634 16 3
5634 17 3
5634 34 1
5635 18 32
5635 19 28
5635 20 25
5636 38 2
5637 26 3
5638 34 1
5639 28 3
5640 3 1
5641 3 1
5641 24 2
5641 31 1
5642 8 1
5643 24 2
5644 34 1
5645 24 7
5646 17 2
5647 18 8
5647 19 5
5647 20 2
5647 24 1
5648 3 1
5649 4 1
5650 29 1
5651 21 1
5651 29 1
5651 30 1
5652 4 6
5652 5 28
5652 38 19
5653 1 1
5653 2 13
5653 3 23
5653 34 29
5654 2 3
5654 3 20
5654 34 26
5655 15 1
5655 17 1
5656 29 1
5657 29 1
5658 21 4
5658 22 2
5659 28 8
5660 29 22
5660 30 2
5661 31 2
5662 28 10
5663 7 1
5663 9 2
5663 10 1
5663 11 1
5663 18 6
5663 19 5
5663 20 5
5664 10 1
5664 18 2
5664 19 1
5664 24 1
5664 30 1
5664 34 1
5665 18 3
5665 19 2
5665 20 1
5666 2 1
5667 21 3
5667 22 3
5667 38 1
5668 3 1
5668 19 1
5668 31 9
5669 10 1
5669 22 1
5670 34 1
5671 21 10
5671 22 4
5672 4 5
5672 5 26
5672 38 22
5673 20 1
5674 18 19
5674 19 22
5674 20 6
5675 21 2
5676 22 1
5677 38 1
5678 38 1
5679 29 16
5680 34 1
5681 20 1
5681 24 16
5682 10 1
5683 29 1
5684 14 4
5685 2 2
5685 3 5
5685 9 1
5685 34 11
5686 21 39
5686 22 20
5687 10 1
5688 3 1
5689 24 1
5689 31 1
5690 2 1
5691 19 1
5691 38 1
5692 16 1
5692 17 1
5693 34 3
5693 38 1
5694 12 1
5695 34 1
5696 2 4
5696 3 17
5696 24 1
5696 29 16
5696 30 3
5696 34 15
5697 1 1
5697 2 13
5697 3 37
5697 34 33
5698 4 1
5698 12 5
5698 14 9
5699 7 14
5699 8 16
5699 34 1
5700 24 3
5701 18 1
5702 26 7
5703 2 1
5704 34 1
5705 3 1
5705 24 28
5706 8 1
5707 5 1
5708 28 1
5709 3 1
5710 28 1
5711 5 1
5712 24 1
5713 4 1
5714 7 1
5714 8 3
5715 3 1
5715 12 6
5715 14 8
5716 21 1
5717 12 1
5717 26 4
5717 28 6
5718 15 3
5718 16 4
5718 17 3
5719 19 1
5720 28 5
5721 38 1
5722 10 1
5723 3 2
5723 34 3
5725 8 1
5726 21 1
5727 19 1
5728 10 1
5729 12 1
5730 15 1
5731 28 1
5732 3 1
5732 4 6
5732 5 31
5732 38 45
5733 34 1
5734 38 1
5735 24 2
5736 24 1
5737 2 1
5738 2 16
5738 3 30
5738 26 3
5738 34 36
5739 10 1
5739 11 1
5740 2 1
5741 1 1
5741 2 19
5741 3 21
5741 34 35
5742 3 1
5743 12 8
5743 14 6
5744 21 1
5745 10 1
5746 2 5
5746 3 7
5746 34 9
5747 38 1
5748 29 2
5749 34 1
5750 38 1
5751 25 2
5751 26 5
5752 2 1
5752 3 9
5752 34 12
5753 31 1
5754 3 1
5755 31 2
5756 10 1
5757 21 14
5757 22 8
5758 1 1
5759 12 1
5760 17 2
5761 29 21
5761 30 1
5762 29 1
5762 31 13
5762 34 1
5763 5 1
5764 2 1
5764 5 4
5764 7 1
5764 8 1
5764 12 1
5764 38 13
5765 19 1
5765 24 1
5766 5 1
5766 38 1
5767 34 1
5768 15 10
5768 16 1
5768 17 5
5769 24 1
5770 21 1
5771 1 1
5771 2 13
5771 3 38
5771 34 63
5772 9 12
5772 10 16
5772 11 10
5773 18 4
5773 19 8
5773 20 3
5773 31 1
5774 38 1
5775 38 1
5776 29 1
5777 26 1
5778 5 1
5778 21 1
5779 29 2
5780 24 6
5781 29 11
5782 2 1
5783 21 10
5783 22 7
5783 29 2
5784 15 5
5784 16 1
5784 17 2
5785 11 1
5786 31 8
5787 12 32
5787 14 22
5787 17 1
5788 31 5
5789 26 1
5790 5 2
5790 38 1
5791 2 1
5792 22 1
5793 5 1
5793 15 1
5794 12 1
5795 26 1
5796 3 1
5796 15 2
5796 18 1
5796 19 3
5796 20 3
5796 38 1
5797 4 1
5797 38 1
5798 31 1
5799 29 1
5800 17 1
5801 38 1
5802 22 1
5803 26 5
5804 14 1
5804 17 1
5804 18 18
5804 31 1
5805 12 3
5805 14 7
5806 8 1
5806 26 1
5806 29 1
5807 12 1
5808 2 8
5808 3 7
5808 26 3
5808 31 7
5808 34 10
5809 19 1
5810 2 1
5810 31 1
5811 20 1
5812 31 1
5813 24 4
5814 9 1
5814 11 3
5815 28 2
5816 18 1
5816 26 1
5816 29 28
5816 30 1
5817 26 7
5818 24 5
5819 5 4
5819 18 7
5819 19 18
5819 20 7
5819 38 2
5820 38 1
5821 18 19
5821 19 30
5821 20 16
5822 19 1
5823 5 1
5824 5 1
5824 38 1
5825 34 1
5826 18 32
5826 19 46
5826 20 19
5826 21 9
5827 20 1
5827 27 1
5827 28 1
5828 34 1
5829 2 3
5829 3 11
5829 21 1
5829 29 23
5829 30 1
5829 34 14
5830 24 1
5831 30 1
5832 4 4
5832 5 22
5832 12 1
5832 38 20
5833 29 6
5834 21 1
5835 3 1
5835 24 5
5835 34 1
5836 38 1
5837 15 6
5837 16 4
5837 17 6
5837 29 2
5838 24 3
5839 22 1
5840 18 3
5840 19 2
5841 24 4
5841 29 2
5842 29 6
5842 30 3
5843 3 1
5843 21 1
5844 5 1
5845 18 1
5845 19 1
5846 1 2
5846 2 26
5846 3 34
5846 20 1
5846 34 40
5847 12 1
5848 7 4
5848 8 21
5849 28 1
5850 23 1
5850 24 11
5851 21 1
5851 24 4
5852 2 6
5852 3 5
5852 34 17
5853 19 1
5854 38 1
5855 24 1
5855 34 1
5856 16 1
5857 21 1
5858 1 1
5858 2 10
5858 3 11
5858 34 14
5859 21 16
5859 22 16
5859 38 1
5860 26 2
5861 12 45
5861 13 1
5861 14 33
5861 19 1
5862 3 1
5862 25 1
5862 26 9
5863 7 3
5863 8 5
5864 2 1
5865 38 1
5866 5 1
5867 5 1
5868 29 1
5869 28 1
5870 2 4
5870 3 13
5870 34 18
5871 2 1
5872 5 1
5872 15 1
5872 16 2
5872 17 1
5872 38 2
5873 18 24
5873 19 38
5873 20 7
5873 21 12
5873 22 9
5874 15 1
5875 28 1
5876 28 3
5877 28 1
5877 38 1
5878 34 1
5879 5 1
5880 8 1
5881 20 1
5881 29 10
5881 30 1
5882 7 30
5882 8 32
5883 10 1
5884 31 1
5885 31 4
5886 2 1
5886 3 1
5887 3 1
5887 24 1
5888 2 10
5888 3 9
5888 34 12
5888 38 1
5889 10 1
5889 31 12
5890 34 1
5891 2 1
5892 29 3
5893 29 8
5894 8 1
5894 12 9
5894 13 1
5894 14 3
5895 7 1
5896 28 6
5896 31 13
5896 32 1
5897 21 1
5898 29 5
5898 30 1
5899 24 1
5900 19 1
5900 31 2
5901 29 1
5902 38 1
5903 2 4
5903 3 3
5903 34 4
5904 24 1
5905 28 8
5906 3 4
5906 34 9
5907 4 1
5908 34 1
5909 15 1
5910 28 1
5911 5 1
5911 19 1
5911 21 1
5912 8 1
5912 38 1
5913 2 1
5914 2 4
5914 3 10
5914 34 13
5915 2 25
5915 3 19
5915 34 48
5915 38 1
5916 31 1
5917 18 8
5917 19 28
5917 20 6
5918 29 2
5919 18 48
5919 19 52
5919 20 13
5920 31 3
5921 1 1
5921 2 10
5921 3 38
5921 29 1
5921 34 35
5922 8 1
5922 18 1
5923 24 13
5923 38 1
5924 2 1
5924 34 1
5925 10 1
5926 8 1
5927 21 8
5927 22 3
5928 24 1
5928 28 4
5929 21 18
5929 22 15
5930 2 5
5930 3 31
5930 34 33
5931 24 19
5932 18 2
5932 19 1
5933 5 1
5934 1 1
5934 2 7
5934 3 9
5934 34 3
5935 2 3
5935 3 3
5935 5 2
5935 10 1
5935 14 1
5935 18 2
5935 24 1
5935 26 1
5935 28 1
5935 29 2
5935 31 1
5935 34 3
5936 2 8
5936 3 13
5936 34 15
5937 15 2
5937 18 4
5937 19 1
5937 20 1
5938 34 1
5939 24 1
5940 21 1
5941 34 1
5942 3 2
5942 23 1
5942 24 6
5942 31 6
5942 34 2
5942 38 1
5943 12 2
5943 14 1
5944 7 12
5944 8 17
5945 3 1
5946 3 1
5947 24 8
5948 34 1
5949 5 1
5950 20 1
5951 34 1
5952 34 2
5953 9 1
5954 3 1
5954 4 3
5954 5 27
5954 38 29
5955 34 1
5956 38 1
5957 1 1
5957 2 4
5957 3 10
5957 19 1
5957 34 8
5958 28 1
5959 14 1
5960 34 1
5961 24 1
5962 5 1
5962 29 8
5962 34 1
5962 38 1
5963 34 1
5964 34 1
5965 29 5
5966 2 1
5967 29 2
5968 4 5
5968 5 20
5968 38 30
5969 12 6
5969 13 1
5970 34 1
5971 19 1
5972 9 28
5972 10 25
5972 11 19
5973 28 2
5973 29 1
5974 1 2
5974 2 26
5974 3 32
5974 34 46
5975 2 4
5975 3 9
5975 31 1
5975 34 4
5976 31 4
5977 3 1
5978 8 1
5979 4 3
5979 5 13
5979 38 28
5980 24 22
5981 38 2
5982 28 20
5982 31 1
5983 29 5
5983 30 1
5984 5 1
5985 18 40
5985 19 41
5985 20 15
5986 3 1
5986 29 1
5986 34 1
5987 24 12
5987 38 1
5988 12 1
5989 29 12
5989 30 2
5990 18 1
5991 26 4
5992 29 8
5993 1 1
5993 2 11
5993 3 33
5993 34 30
5993 38 2
5994 8 1
5995 25 1
5995 26 3
5996 3 1
5997 24 1
5998 14 1
5999 8 1
6000 8 1
6001 24 1
6001 28 6
6002 2 4
6002 3 6
6002 34 6
6003 15 1
6004 3 1
6005 2 9
6005 3 13
6005 21 1
6005 34 15
6006 21 1
6007 9 1
6007 17 2
6008 2 1
6009 34 1
6009 38 1
6010 31 1
6011 21 8
6011 22 3
6011 30 1
6012 4 1
6012 5 7
6012 7 4
6012 8 12
6012 38 4
6013 3 1
6013 29 10
6013 30 2
6014 34 1
6015 2 1
6016 1 1
6016 2 10
6016 3 32
6016 29 12
6016 30 1
6016 34 38
6017 18 5
6017 19 4
6017 20 2
6018 26 3
6018 29 3
6019 3 2
6019 29 13
6019 30 3
6019 34 1
6020 2 2
6020 3 1
6020 34 3
6021 5 5
6021 38 1
6022 23 1
6022 24 3
6023 24 7
6024 2 14
6024 3 17
6024 29 14
6024 30 1
6024 34 31
6025 5 1
6026 28 1
6027 29 2
6028 22 1
6029 8 1
6029 24 1
6029 38 1
6030 28 2
6031 24 7
6032 18 9
6032 19 13
6032 20 6
6033 24 1
6034 8 1
6034 22 1
6034 28 6
6034 34 1
6035 12 6
6035 13 1
6035 14 5
6036 4 1
6036 19 2
6036 38 1
6037 2 8
6037 3 8
6037 26 8
6037 34 17
6038 9 1
6039 5 1
6039 9 1
6039 11 1
6039 14 1
6039 31 1
6040 38 1
6041 16 1
6041 21 1
6042 4 1
6043 2 1
6044 8 1
6045 34 1
6046 22 1
6047 22 1
6047 29 16
6047 30 2
6047 34 1
6048 5 2
6048 30 1
6048 38 6
6049 26 4
6050 19 1
6051 18 2
6051 20 2
6052 8 1
6053 12 5
6053 14 4
6054 34 1
6055 15 1
6056 10 1
6056 18 2
6056 19 1
6057 2 1
6058 28 1
6059 11 1
6059 28 1
6060 29 1
6061 24 4
6062 5 1
6063 11 1
6064 29 2
6065 24 1
6066 18 6
6066 19 5
6066 20 2
6067 18 5
6067 19 4
6067 34 1
6068 10 1
6069 38 1
6070 2 1
6071 18 1
6071 19 2
6072 34 1
6073 8 1
6073 18 1
6074 28 3
6074 29 2
6075 18 3
6075 19 4
6075 20 3
6076 22 1
6077 4 1
6077 5 6
6077 38 3
6078 2 1
6078 3 10
6078 34 21
6079 34 1
6080 9 1
6081 28 10
6081 34 2
6082 28 1
6082 29 1
6083 2 1
6084 19 1
6085 38 1
6086 38 1
6087 5 1
6088 12 5
6088 14 1
6088 18 1
6088 38 1
6089 38 2
6090 24 3
6091 11 1
6091 19 1
6092 3 1
6093 10 4
6094 10 1
6095 1 1
6095 2 7
6095 3 11
6095 34 13
6096 29 6
6096 30 1
6097 24 25
6097 38 1
6098 8 1
6099 31 7
6099 34 1
6099 38 1
6100 29 2
6101 7 2
6101 8 2
6102 18 1
6102 38 1
6103 26 1
6103 29 1
6104 26 1
6105 5 1
6105 12 4
6105 14 9
6106 1 1
6106 2 46
6106 3 81
6106 34 107
6107 3 1
6107 28 2
6108 2 1
6109 21 9
6109 22 6
6110 21 1
6111 28 1
6112 1 1
6112 2 20
6112 3 45
6112 10 1
6112 11 1
6112 34 40
6113 30 1
6114 5 4
6114 38 6
6115 18 1
6116 24 2
6117 29 9
6117 30 1
6118 7 1
6118 38 1
6119 34 1
6120 3 1
6121 23 1
6121 24 2
6122 29 7
6122 30 2
6122 34 1
6122 38 1
6123 3 1
6124 26 1
6124 31 3
6125 9 32
6125 10 55
6125 11 20
6125 15 6
6125 16 6
6125 17 10
6125 26 1
6125 38 1
6126 24 1
6127 2 10
6127 3 20
6127 34 27
6128 2 6
6128 3 20
6128 34 11
6129 11 1
6130 29 1
6131 2 1
6131 4 1
6131 5 7
6131 38 2
6132 24 2
6133 3 1
6134 5 1
6135 22 1
6136 34 1
6137 5 1
6137 12 7
6137 14 2
6138 24 1
6138 38 1
6139 5 1
6139 28 2
6140 21 1
6141 4 1
6142 20 1
6142 29 19
6142 30 2
6143 5 1
6143 34 1
6143 38 1
6144 34 1
6145 38 1
6146 26 2
6146 29 1
6147 5 1
6147 15 1
6148 19 1
6148 21 7
6148 22 4
6149 26 1
6150 2 1
6150 16 1
6150 19 2
6151 34 1
6152 12 1
6153 31 14
6154 5 1
6155 14 1
6155 21 1
6156 12 6
6156 14 1
6156 34 1
6157 38 1
6158 12 1
6159 38 1
6160 4 1
6160 5 10
6160 38 7
6161 34 1
6162 29 1
6162 31 5
6163 10 1
6163 18 1
6164 19 1
6165 9 17
6165 10 21
6165 11 16
6166 12 1
6166 18 1
6166 21 1
6167 29 1
6167 34 1
6168 26 7
6169 5 1
6170 9 1
6171 14 1
6171 24 8
6172 31 1
6173 34 1
6174 24 7
6174 38 1
6175 5 2
6175 12 1
6176 2 2
6176 23 2
6176 24 14
6177 24 1
6178 26 2
6179 34 2
6180 29 2
6180 30 1
6181 8 1
6182 21 1
6183 3 1
6184 28 5
6185 2 1
6186 18 1
6186 21 20
6186 22 17
6187 11 1
6187 28 5
6188 8 1
6188 28 1
6188 29 1
6189 38 1
6190 9 1
6190 18 1
6190 19 4
6190 20 1
6191 4 1
6192 2 8
6192 3 6
6192 34 9
6193 9 4
6193 10 6
6193 11 6
6194 29 13
6195 19 1
6196 8 1
6197 30 1
6198 4 1
6198 24 1
6198 25 3
6198 26 11
6198 30 1
6199 29 7
6200 38 1
6201 1 1
6201 2 6
6201 3 8
6201 34 8
6202 3 1
6202 4 1
6202 38 1
6203 8 1
6203 24 1
6203 29 1
6204 34 1
6205 26 1
6205 34 1
6206 15 1
6206 17 1
6206 34 1
6207 9 1
6207 29 1
6208 11 1
6209 2 1
6209 22 1
6209 24 7
6209 29 1
6209 34 1
6210 38 1
6211 12 1
6212 29 1
6213 15 4
6213 17 1
6213 22 1
6213 31 1
6214 38 1
6215 3 2
6215 34 1
6216 7 1
6216 8 2
6216 17 1
6216 34 1
6217 10 1
6218 19 1
6219 3 1
6219 29 11
6219 30 2
6219 34 1
6220 2 1
6221 29 1
6222 19 1
6223 29 5
6223 30 1
6224 24 4
6225 12 1
6226 8 1
6227 31 7
6228 10 1
6228 15 17
6228 16 7
6228 17 16
6229 2 1
6229 31 5
6230 19 1
6230 24 1
6231 28 1
6232 34 1
6233 29 1
6234 3 1
6235 28 2
6236 18 1
6236 34 1
6237 3 1
6238 21 14
6238 22 11
6239 29 5
6239 30 1
6240 22 1
6240 28 1
6241 5 1
6242 17 1
6242 21 18
6242 22 16
6243 5 2
6243 16 1
6243 25 1
6243 26 7
6243 34 1
6243 38 3
6244 11 1
6244 38 1
6245 5 1
6246 3 1
6247 19 1
6247 24 6
6248 28 4
6249 24 1
6249 31 1
6250 24 1
6251 17 1
6252 18 1
6253 24 1
6254 29 1
6255 3 1
6255 16 1
6255 34 1
6256 5 1
6257 19 1
6258 9 1
6259 22 1
6260 24 11
6260 29 4
6260 30 1
6261 24 6
6261 29 1
6261 34 1
6262 31 1
6263 28 1
6264 5 1
6264 18 5
6264 19 14
6264 20 3
6264 38 2
6265 12 52
6265 13 1
6265 14 25
6266 19 1
6267 26 2
6267 34 1
6268 34 1
6269 18 1
6269 20 1
6270 21 1
6271 3 1
6272 24 1
6273 18 1
6273 29 2
6273 38 2
6274 4 1
6274 5 5
6274 38 4
6275 38 1
6276 2 1
6276 4 2
6276 5 10
6276 34 1
6276 38 16
6277 30 1
6278 34 1
6279 21 1
6279 22 1
6280 24 1
6281 28 7
6281 31 13
6282 24 1
6282 34 1
6283 7 1
6284 8 1
6284 29 1
6285 2 1
6286 7 12
6286 8 21
6287 2 6
6287 3 5
6287 26 2
6287 34 8
6288 5 1
6289 19 1
6290 31 2
6291 12 9
6291 13 1
6291 14 6
6292 12 1
6293 18 1
6294 28 1
6295 3 1
6296 4 3
6296 5 11
6296 38 19
6297 26 2
6298 4 10
6298 5 43
6298 19 1
6298 38 50
6299 29 1
6300 3 1
6301 5 1
6302 16 1
6303 1 1
6303 2 10
6303 3 23
6303 34 23
6304 9 1
6305 24 7
6306 14 1
6306 15 1
6307 31 2
6308 31 1
6309 3 2
6310 18 9
6310 19 15
6310 20 2
6311 34 1
6311 38 1
6312 26 2
6313 24 12
6314 19 1
6315 3 1
6316 29 3
6317 24 27
6318 21 7
6318 22 5
6319 2 5
6319 3 29
6319 18 1
6319 34 18
6320 1 1
6320 5 1
6320 11 1
6320 28 8
6321 21 16
6321 22 11
6321 24 1
6322 5 1
6322 24 1
6322 29 10
6322 30 2
6322 31 4
6323 34 1
6324 2 1
6324 3 2
6324 34 2
6325 23 1
6325 24 20
6325 29 13
6326 5 1
6326 38 4
6327 38 1
6328 4 1
6328 5 7
6328 20 1
6328 38 6
6329 21 3
6329 22 3
6329 34 2
6330 22 1
6331 3 1
6332 2 3
6332 3 11
6332 29 1
6332 34 20
6333 21 1
6334 3 1
6334 14 3
6335 2 1
6335 28 1
6336 18 1
6336 21 1
6337 5 1
6338 18 1
6339 2 1
6340 19 10
6340 20 3
6341 18 1
6342 34 1
6343 22 1
6344 3 1
6345 5 1
6346 11 1
6346 28 1
6347 18 1
6348 31 1
6349 10 1
6349 29 15
6349 30 3
6350 8 1
6351 29 1
6352 1 1
6352 2 13
6352 3 7
6352 26 3
6352 34 15
6353 29 1
6354 28 1
6355 19 1
6356 25 5
6356 26 28
6357 25 1
6358 14 1
6359 18 9
6359 19 9
6359 20 4
6360 31 1
6361 26 1
6362 2 4
6362 3 15
6362 34 22
6363 2 12
6363 3 12
6363 19 1
6363 26 4
6363 34 20
6364 11 1
6365 1 1
6365 2 5
6365 3 15
6365 4 1
6365 5 9
6365 19 1
6365 24 1
6365 34 16
6365 38 8
6366 10 3
6366 11 1
6367 19 1
6368 19 1
6369 23 1
6369 24 2
6369 29 1
6370 24 6
6371 9 1
6372 3 1
6373 5 1
6374 12 11
6374 14 11
6374 38 1
6375 1 1
6376 21 4
6376 22 1
6377 9 3
6377 10 11
6377 11 8
6378 4 2
6378 5 10
6378 38 31
6379 4 4
6379 5 12
6379 38 22
6380 10 1
6381 12 3
6381 13 1
6381 14 3
6382 28 4
6382 31 1
6383 5 1
6384 28 2
6384 34 1
6385 29 2
6386 21 7
6386 22 8
6387 19 1
6388 2 8
6388 3 8
6388 24 1
6388 28 4
6388 34 6
6389 24 1
6390 31 1
6391 20 1
6392 34 1
6393 23 1
6393 24 5
6394 1 1
6394 2 13
6394 3 37
6394 34 59
6395 3 1
6396 4 3
6396 5 32
6396 24 1
6396 38 19
6397 22 1
6398 29 3
6399 21 2
6399 22 2
6400 31 11
6401 12 1
6402 38 1
6403 28 4
6404 18 1
6404 19 5
6404 20 2
6405 24 6
6406 5 1
6406 20 1
6406 38 5
6407 4 2
6407 5 8
6407 38 4
6408 21 1
6409 31 2
6410 24 2
6411 3 1
6411 24 1
6412 34 1
6413 34 1
6414 11 2
6415 18 1
6415 19 4
6415 20 1
6416 2 5
6416 3 12
6416 34 13
6417 29 1
6417 30 1
6417 31 12
6418 5 5
6418 38 16
6419 12 1
6421 24 2
6422 12 1
6422 34 1
6423 14 1
6424 5 2
6425 38 1
6426 2 8
6426 3 4
6426 34 8
6426 38 1
6427 3 1
6428 24 1
6428 31 1
6429 34 1
6430 4 4
6430 5 17
6430 38 19
6431 1 1
6432 4 1
6432 5 2
6432 10 2
6432 38 7
6433 24 2
6434 2 2
6434 3 13
6434 24 13
6434 34 14
6435 5 2
6435 24 29
6436 20 1
6436 24 16
6436 29 3
6436 34 1
6437 3 1
6438 38 1
6439 2 4
6439 3 13
6439 34 5
6440 18 1
6441 15 1
6442 24 2
6443 11 1
6443 30 1
6444 12 7
6444 14 1
6445 19 1
6446 24 1
6447 38 1
6448 5 1
6449 28 1
6450 1 1
6450 2 11
6450 3 16
6450 34 15
6451 29 14
6451 30 2
6452 29 2
6452 38 1
6453 12 1
6454 18 29
6454 19 34
6454 20 16
6455 34 1
6456 34 1
6457 16 1
6458 29 2
6459 10 1
6460 1 1
6460 2 1
6460 3 5
6460 34 4
6461 18 2
6461 19 2
6462 19 1
6463 9 1
6464 4 7
6464 5 25
6464 38 33
6465 5 1
6466 2 4
6466 3 2
6466 28 1
6466 29 1
6466 34 3
6467 31 1
6468 29 1
6468 34 1
6469 21 3
6469 22 4
6470 15 1
6471 22 1
6472 3 1
6473 26 1
6474 2 2
6474 3 2
6474 34 1
6475 24 3
6476 28 6
6477 12 1
6477 21 1
6477 29 5
6477 30 2
6478 24 1
6478 29 6
6479 8 1
6479 12 1
6479 21 1
6479 34 1
6480 38 1
6481 10 1
6482 26 1
6483 8 1
6484 29 3
6485 22 1
6485 29 5
6486 2 1
6487 10 1
6487 31 1
6488 26 1
6489 3 1
6490 17 1
6491 12 1
6492 29 12
6493 3 1
6494 3 1
6495 28 9
6496 29 1
6497 15 1
6498 8 3
6499 21 1
6500 31 17
6500 34 1
6501 7 1
6501 8 1
6502 8 1
6503 5 4
6503 38 2
6504 38 1
6505 29 20
6505 30 1
6506 15 3
6506 16 2
6506 17 2
6507 7 1
6508 3 1
6508 7 1
6509 38 1
6510 11 1
6511 29 1
6512 1 1
6513 34 1
6514 24 1
6515 26 1
6516 2 13
6516 3 10
6516 29 6
6516 30 1
6516 34 11
6517 26 1
6518 17 1
6518 24 1
6519 34 1
6520 29 1
6521 29 1
6521 38 1
6522 12 2
6522 14 2
6523 3 1
6523 8 1
6524 29 1
6525 26 8
6526 1 2
6526 2 16
6526 3 28
6526 34 18
6527 31 6
6528 2 1
6528 3 1
6528 16 1
6529 24 9
6529 31 1
6530 31 4
6531 24 1
6532 5 1
6533 31 7
6534 2 5
6534 3 8
6534 34 16
6535 29 9
6536 31 7
6536 32 1
6537 3 1
6538 21 4
6538 22 2
6539 24 6
6540 1 1
6540 2 11
6540 3 17
6540 31 3
6540 34 18
6540 38 1
6541 3 1
6541 20 1
6541 21 4
6541 22 2
6541 24 1
6542 20 1
6543 12 1
6544 3 1
6545 2 1
6546 10 1
6546 21 12
6546 22 9
6547 3 1
6548 4 1
6548 5 2
6548 38 1
6549 15 1
6549 17 1
6550 1 1
6550 2 2
6550 3 1
6550 28 1
6550 31 2
6551 1 1
6551 2 2
6551 3 4
6551 9 1
6551 34 6
6552 38 1
6553 24 1
6554 28 2
6555 24 4
6555 28 5
6556 9 1
6557 8 1
6558 38 1
6559 12 16
6559 13 1
6559 14 17
6559 28 1
6560 25 4
6560 26 18
6561 5 2
6561 18 2
6561 19 1
6561 24 2
6561 29 1
6561 34 3
6561 38 1
6562 31 2
6563 4 1
6563 34 1
6564 14 1
6565 3 1
6566 18 1
6567 2 3
6567 3 27
6567 5 1
6567 34 46
6568 4 1
6569 4 6
6569 5 55
6569 38 59
6570 17 1
6571 3 1
6572 24 5
6572 31 1
6573 18 1
6573 28 4
6573 34 1
6574 31 3
6575 29 1
6576 2 2
6576 5 1
6576 8 1
6576 10 1
6576 15 1
6576 21 1
6576 24 4
6576 29 1
6576 38 1
6577 8 1
6577 28 1
6577 29 1
6578 18 1
6579 34 1
6580 34 1
6581 2 1
6582 31 4
6583 4 1
6584 5 1
6585 20 2
6586 24 2
6587 28 1
6588 24 2
6588 31 9
6589 12 1
6590 11 1
6591 1 1
6591 2 18
6591 3 24
6591 34 43
6592 15 1
6593 3 4
6593 34 4
6594 24 1
6594 31 1
6595 29 1
6596 18 21
6596 19 32
6596 20 11
6597 7 7
6597 8 9
6597 18 12
6597 19 11
6597 20 6
6598 5 1
6598 34 1
6599 21 1
6600 26 1
6601 2 2
6602 3 1
6603 29 3
6604 4 1
6604 5 5
6605 2 1
6606 26 6
6607 29 1
6608 29 1
6609 34 1
6610 3 1
6611 2 14
6611 3 13
6611 34 24
6612 34 1
6613 4 3
6613 5 9
6613 34 1
6613 38 9
6614 12 1
6614 14 2
6614 38 1
6615 3 1
6616 3 1
6617 24 4
6617 34 1
6618 28 5
6619 21 1
6620 29 1
6621 8 1
6621 18 3
6621 19 2
6621 26 1
6621 38 1
6622 21 1
6623 12 8
6623 13 1
6624 29 7
6624 30 1
6625 2 1
6626 5 1
6627 4 1
6627 5 2
6627 38 7
6628 15 6
6628 16 7
6628 17 5
6629 34 1
6630 9 1
6631 34 1
6632 16 1
6633 19 1
6633 29 20
6633 30 2
6633 34 1
6634 29 5
6634 30 1
6634 31 1
6635 24 1
6636 10 1
6636 18 19
6636 19 26
6636 20 6
6637 1 1
6637 2 20
6637 3 40
6637 28 1
6637 34 39
6637 38 1
6638 24 15
6638 25 1
6639 18 1
6640 5 1
6640 7 1
6641 38 1
6642 3 2
6643 17 1
6644 18 3
6644 19 8
6644 20 2
6644 24 2
6645 2 1
6646 34 1
6647 4 1
6647 25 2
6647 26 2
6648 17 1
6648 28 1
6649 24 2
6649 34 1
6650 23 1
6650 24 7
6651 7 3
6651 8 1
6652 2 2
6652 3 4
6652 34 1
6653 5 3
6653 38 3
6654 25 1
6654 26 4
6655 1 1
6655 2 6
6655 3 21
6655 28 1
6655 34 14
6656 8 1
6656 29 1
6657 29 1
6658 23 1
6658 24 20
6659 2 14
6659 3 33
6659 34 44
6660 2 1
6660 5 1
6661 4 1
6661 9 2
6661 18 1
6661 19 1
6661 20 1
6661 24 2
6661 34 2
6661 38 1
6662 3 1
6663 3 1
6663 18 6
6663 19 5
6663 20 1
6664 2 1
6664 29 7
6665 2 1
6666 34 1
6667 16 1
6668 2 1
6668 15 1
6668 22 1
6668 28 1
6668 29 1
6668 31 1
6669 7 1
6669 8 4
6670 24 1
6671 25 1
6672 5 6
6672 38 9
6673 24 1
6673 28 2
6674 38 1
6675 24 3
6676 29 1
6677 28 1
6678 3 1
6679 14 1
6680 20 1
6681 2 5
6681 3 9
6681 29 7
6681 30 1
6681 34 13
6682 34 1
6683 3 1
6684 16 2
6685 2 6
6685 3 5
6685 25 2
6685 26 2
6685 34 7
6686 24 28
6686 26 2
6687 21 22
6687 22 12
6688 2 1
6689 38 1
6690 3 1
6691 15 1
6692 8 1
6693 21 1
6694 10 1
6695 26 1
6696 2 23
6696 3 21
6696 18 1
6696 34 30
6697 8 1
6697 24 1
6697 29 23
6697 30 1
6698 7 5
6698 8 7
6699 9 11
6699 10 18
6699 11 14
6699 18 29
6699 19 51
6699 20 17
6700 31 2
6700 38 1
6701 19 2
6702 11 1
6703 30 1
6703 38 1
6704 3 1
6705 28 2
6706 18 1
6707 24 1
6708 34 1
6709 2 14
6709 3 23
6709 34 37
6710 9 2
6710 10 4
6710 11 5
6711 19 1
6712 3 1
6712 12 2
6712 14 5
6713 19 1
6713 24 8
6714 3 2
6715 38 1
6716 3 1
6718 4 3
6718 5 16
6718 38 14
6719 24 1
6720 5 1
6721 3 1
6721 38 1
6722 9 1
6722 11 1
6722 12 1
6722 19 1
6722 34 1
6723 12 9
6723 14 1
6723 34 1
6724 2 18
6724 3 41
6724 18 1
6724 34 52
6725 34 1
6726 25 1
6727 12 11
6727 14 4
6728 2 1
6728 38 1
6729 18 5
6729 19 7
6729 20 3
6730 4 4
6730 5 33
6730 38 37
6731 2 1
6732 24 3
6733 15 1
6733 18 1
6733 20 1
6734 31 2
6735 22 1
6736 20 1
6736 22 1
6737 21 13
6737 22 9
6738 5 1
6739 7 1
6739 8 13
6740 21 25
6740 22 15
6741 26 2
6742 19 1
6743 19 1
6744 29 1
6745 19 1
6746 9 1
6747 9 1
6748 18 1
6749 22 2
6750 5 1
6751 5 1
6752 4 2
6752 5 32
6752 20 1
6752 21 32
6752 22 37
6752 38 46
6753 34 1
6754 38 1
6755 18 22
6755 19 21
6755 20 8
6756 34 1
6757 2 1
6758 15 1
6758 17 1
6759 14 1
6759 38 1
6760 12 1
6761 2 1
6762 2 2
6762 3 6
6762 28 1
6762 29 8
6762 34 8
6763 17 1
6764 31 9
6765 34 1
6766 4 10
6766 5 40
6766 22 1
6766 38 37
6767 2 1
6768 19 1
6768 20 1
6769 29 5
6770 29 8
6770 34 1
6770 38 1
6771 38 1
6772 24 1
6773 38 1
6774 18 1
6774 24 1
6775 12 1
6775 24 11
6776 28 1
6777 15 7
6777 16 3
6777 17 4
6778 12 2
6779 1 1
6779 2 4
6779 3 10
6779 34 6
6780 14 1
6780 19 1
6781 38 1
6782 24 12
6783 8 1
6784 5 1
6785 1 2
6785 2 9
6785 3 23
6785 24 1
6785 34 31
6786 29 4
6787 7 1
6788 5 1
6788 28 4
6789 9 14
6789 10 34
6789 11 16
6789 24 1
6790 3 1
6790 34 1
6791 11 2
6792 12 1
6793 2 6
6793 3 4
6793 29 5
6793 30 1
6793 34 5
6794 7 27
6794 8 48
6794 19 1
6794 34 1
6795 24 1
6796 12 9
6796 14 3
6797 24 1
6798 34 1
6799 5 1
6799 21 16
6799 22 10
6800 12 6
6800 14 7
6800 24 1
6801 12 8
6801 14 6
6802 1 1
6802 2 30
6802 3 70
6802 34 67
6803 38 1
6804 3 1
6805 16 1
6805 25 1
6805 26 6
6806 34 1
6807 2 17
6807 3 34
6807 34 28
6808 3 1
6809 1 1
6809 2 8
6809 3 12
6809 34 13
6810 24 6
6811 16 1
6811 18 4
6811 19 3
6811 20 1
6811 31 7
6811 33 1
6812 22 1
6813 12 4
6813 14 4
6814 34 1
6815 31 1
6816 29 1
6817 34 1
6818 2 1
6818 23 1
6818 24 21
6818 34 1
6819 8 1
6820 7 1
6821 24 2
6822 31 12
6822 38 1
6823 18 1
6823 19 1
6823 21 1
6824 3 1
6824 18 1
6825 12 2
6825 14 1
6826 3 1
6827 5 1
6828 25 1
6829 29 1
6830 7 1
6831 11 1
6832 34 1
6833 11 1
6834 10 1
6835 9 3
6835 10 5
6835 11 4
6836 17 1
6837 14 1
6838 5 1
6839 3 1
6839 14 1
6840 12 5
6840 14 3
6840 24 1
6841 28 1
6842 14 1
6843 3 1
6844 29 2
6845 19 1
6846 4 4
6846 5 19
6846 38 19
6847 24 6
6847 34 1
6848 34 1
6849 24 12
6850 29 5
6851 3 1
6851 19 1
6852 2 1
6853 7 4
6853 8 8
6853 29 1
6853 34 1
6854 4 10
6854 5 51
6854 38 54
6855 21 1
6856 1 2
6856 2 7
6856 3 14
6856 19 1
6856 34 11
6857 24 5
6858 20 1
6859 29 1
6860 3 1
6860 5 1
6860 21 1
6861 3 1
6861 31 4
6862 3 1
6863 2 2
6863 3 1
6863 12 12
6863 13 2
6863 14 4
6863 26 4
6863 34 4
6864 29 10
6864 30 3
6865 14 1
6866 2 5
6866 3 9
6866 34 12
6867 28 6
6867 38 1
6868 29 1
6869 29 1
6869 30 1
6870 9 6
6870 10 6
6870 11 6
6871 2 1
6872 29 1
6873 5 1
6874 14 1
6875 24 10
6876 8 1
6877 2 1
6878 2 14
6878 3 13
6878 34 20
6879 2 9
6879 3 32
6879 5 1
6879 24 8
6879 25 1
6879 34 39
6880 34 1
6881 34 1
6882 8 1
6882 24 6
6883 26 3
6883 29 1
6884 19 1
6885 2 1
6885 23 1
6885 24 14
6886 24 1
6887 3 1
6887 24 1
6888 18 10
6888 19 16
6888 20 8
6889 19 1
6890 29 1
6891 21 1
6892 24 9
6893 29 6
6894 5 1
6894 21 9
6894 22 11
6894 38 1
6895 2 1
6895 23 1
6895 24 19
6896 21 1
6897 28 1
6898 8 2
6899 29 1
6900 34 1
6901 22 1
6902 11 1
6903 21 13
6903 22 8
6904 2 14
6904 3 23
6904 34 26
6905 24 1
6906 19 1
6907 29 1
6908 24 2
6908 26 2
6908 29 15
6908 30 1
6909 4 7
6909 5 37
6909 38 40
6910 2 2
6910 3 4
6910 24 6
6911 12 1
6911 14 2
6912 15 1
6913 10 1
6913 19 1
6914 28 2
6915 25 1
6916 34 1
6917 18 1
6918 38 1
6919 2 1
6920 3 1
6921 15 1
6921 16 1
6921 17 2
6922 21 2
6922 22 1
6923 24 4
6923 34 1
6924 2 10
6924 3 41
6924 34 32
6925 3 1
6926 3 1
6926 29 1
6927 5 10
6927 38 13
6928 34 1
6928 38 1
6929 24 1
6930 24 5
6930 31 1
6931 2 5
6931 3 8
6931 34 3
6932 19 1
6933 19 1
6933 24 1
6934 34 1
6935 9 1
6935 15 1
6935 17 1
6936 11 1
6936 12 1
6936 24 1
6936 34 1
6937 19 1
6938 2 1
6938 24 1
6939 29 1
6940 18 16
6940 19 23
6940 20 9
6941 3 1
6942 3 1
6942 4 1
6942 5 5
6942 9 9
6942 10 9
6942 11 16
6942 38 3
6943 28 2
6944 5 1
6944 38 2
6945 2 2
6945 3 4
6945 34 3
6946 19 1
6947 21 3
6947 22 1
6948 5 1
6949 38 1
6950 4 7
6950 5 31
6950 38 49
6951 34 1
6952 24 14
6952 34 1
6953 5 1
6954 38 1
6955 29 10
6955 30 1
6956 5 1
6956 7 1
6956 18 3
6956 19 7
6956 20 3
6957 19 1
6958 3 1
6958 31 1
6959 34 1
6960 2 4
6960 3 1
6960 5 1
6960 34 4
6960 38 1
6961 18 1
6962 19 1
6962 23 1
6962 24 3
6963 5 1
6964 31 2
6965 5 1
6966 18 5
6966 19 17
6966 20 6
6967 29 1
6968 3 1
6969 18 1
6969 29 13
6969 30 1
6970 3 1
6971 18 1
6971 28 3
6972 18 1
6972 28 1
6973 26 1
6973 34 1
6974 34 1
6975 18 1
6976 7 1
6976 24 1
6977 3 1
6977 26 2
6978 9 1
6978 10 3
6979 2 2
6979 3 6
6979 26 1
6979 34 5
6980 1 2
6980 2 25
6980 3 40
6980 34 51
6981 11 1
6982 3 1
6982 16 1
6982 34 1
6983 2 3
6983 3 5
6983 34 5
6984 3 1
6985 34 1
6986 11 1
6986 38 1
6987 29 1
6988 21 20
6988 22 14
6989 34 1
6990 3 1
6991 15 11
6991 16 10
6991 17 9
6992 14 1
6993 5 1
6993 29 3
6994 15 1
6995 34 1
6996 24 30
6997 9 2
6997 10 5
6997 11 2
6998 3 1
6999 5 1
7000 5 1
7000 38 6
7001 20 1
7002 28 10
7003 34 1
7004 12 1
7004 21 1
7004 22 2
7004 34 1
7005 19 1
7006 3 1
7007 14 1
7008 1 2
7008 2 20
7008 3 34
7008 31 1
7008 34 38
7009 21 7
7009 22 6
7010 12 1
7010 14 1
7010 18 1
7011 2 3
7011 3 8
7011 34 8
7012 31 4
7013 3 1
7013 18 2
7013 19 4
7014 24 14
7015 4 3
7015 5 16
7015 38 31
7016 4 1
7016 24 1
7016 28 6
7017 9 1
7017 13 1
7017 24 4
7018 5 1
7019 34 1
7020 38 1
7021 5 1
7022 21 6
7022 22 3
7023 2 2
7023 3 3
7023 12 1
7023 21 1
7023 24 2
7023 31 1
7023 34 1
7024 12 14
7024 13 1
7024 14 11
7025 18 6
7025 19 7
7025 20 2
7026 10 2
7026 18 1
7027 3 1
7028 18 1
7029 18 68
7029 19 89
7029 20 38
7030 2 1
7031 12 1
7031 24 21
7032 5 1
7032 34 1
7033 18 1
7034 19 1
7035 24 1
7036 24 4
7037 11 1
7038 24 1
7039 1 3
7039 2 15
7039 3 24
7039 31 16
7039 34 16
7040 2 1
7040 24 1
7040 25 2
7040 26 12
7040 30 1
7041 18 1
7041 19 3
7041 20 4
7041 31 1
7042 3 1
7042 34 1
7043 24 25
7044 29 1
7045 4 3
7045 5 12
7045 38 14
7046 3 1
7047 11 1
7048 19 1
7048 31 2
7049 24 1
7050 19 1
7051 11 1
7051 18 1
7051 29 27
7051 30 5
7052 9 2
7052 10 2
7052 19 4
7052 20 3
7053 10 3
7053 11 1
7054 34 1
7055 3 1
7056 5 1
7056 12 1
7056 24 11
7057 16 1
7058 18 6
7058 19 17
7058 20 4
7059 26 1
7060 2 1
7060 7 1
7060 19 12
7060 21 2
7060 22 1
7061 34 2
7062 2 1
7063 21 1
7063 31 21
7064 12 8
7064 14 7
7065 21 5
7065 22 6
7066 9 2
7066 10 2
7066 30 1
7067 29 1
7068 19 1
7068 34 1
7069 8 1
7070 24 1
7071 9 1
7072 34 1
7073 34 1
7074 17 1
7075 24 3
7076 31 2
7077 5 2
7077 29 1
7078 24 13
7079 10 1
7079 29 1
7080 19 1
7080 20 1
7081 29 5
7082 29 2
7083 2 9
7083 3 18
7083 29 1
7083 34 21
7084 1 1
7084 2 8
7084 3 13
7084 34 21
7085 28 3
7085 29 1
7085 34 1
7086 12 3
7087 1 1
7088 24 1
7089 19 1
7090 18 8
7090 19 2
7090 20 1
7091 5 3
7091 21 1
7091 38 6
7092 2 5
7092 3 5
7092 34 5
7093 2 2
7093 3 4
7093 18 1
7093 19 3
7093 20 4
7093 34 4
7094 19 1
7095 9 1
7095 10 3
7095 11 3
7096 2 1
7097 18 31
7097 19 38
7097 20 17
7098 12 1
7098 14 1
7099 25 1
7099 29 4
7100 5 2
7100 34 1
7101 31 2
7102 31 6
7103 7 1
7104 4 1
7105 16 1
7106 9 8
7106 10 14
7106 11 10
7106 29 1
7107 4 1
7107 22 1
7108 26 1
7108 34 1
7109 2 1
7110 12 1
7111 38 1
7112 7 1
7112 8 1
7113 31 3
7114 25 1
7115 34 1
7116 3 1
7117 31 2
7118 38 1
7119 38 2
7120 38 1
7121 18 2
7121 19 6
7121 20 1
7122 15 1
7122 16 1
7123 11 1
7124 3 1
7124 31 10
7125 21 55
7125 22 39
7126 3 1
7127 9 1
7127 38 1
7128 11 1
7128 26 1
7129 3 3
7129 19 1
7129 24 6
7129 27 1
7129 28 6
7130 24 23
7130 31 1
7131 29 1
7132 3 1
7132 17 1
7132 34 1
7133 4 1
7133 5 7
7133 12 1
7133 38 15
7134 18 9
7134 19 18
7134 20 2
7134 29 7
7135 3 1
7135 29 4
7136 38 1
7137 2 1
7137 3 3
7137 7 1
7137 34 4
7138 9 1
7138 22 1
7138 38 1
7139 19 1
7140 29 7
7140 30 1
7141 12 4
7141 14 1
7142 18 26
7142 19 36
7142 20 13
7142 34 2
7143 29 1
7144 18 5
7144 19 2
7145 18 3
7145 19 1
7146 3 1
7147 3 1
7148 20 1
7149 19 1
7150 17 1
7151 38 1
7152 4 1
7153 24 1
7154 34 1
7155 3 2
7156 18 38
7156 19 34
7156 20 13
7157 29 12
7157 30 1
7158 34 1
7159 3 1
7159 4 1
7159 5 7
7159 38 4
7160 34 1
7161 5 1
7162 1 1
7162 2 10
7162 3 29
7162 18 1
7162 34 21
7163 34 1
7164 14 1
7165 29 1
7166 10 1
7167 31 1
7168 5 15
7168 38 17
7169 14 2
7169 28 2
7170 26 1
7171 4 1
7171 5 8
7171 38 9
7172 34 1
7173 29 1
7174 29 9
7175 29 19
7175 30 3
7176 29 1
7177 22 1
7178 29 3
7179 31 1
7179 34 1
7180 30 1
7181 34 1
7182 21 1
7182 24 2
7182 34 1
7183 4 1
7184 4 1
7184 5 5
7184 12 1
7184 38 6
7185 34 1
7186 23 1
7186 24 1
7187 3 1
7187 18 13
7187 19 31
7187 20 3
7188 24 10
7189 34 1
7190 2 7
7190 3 6
7190 25 3
7190 26 10
7190 29 11
7190 30 1
7190 31 5
7190 34 15
7191 24 1
7191 29 15
7192 29 1
7193 9 1
7193 11 1
7194 3 1
7194 21 2
7194 22 5
7195 12 3
7195 14 5
7195 34 1
7196 18 20
7196 19 25
7196 20 7
7197 3 1
7197 7 2
7197 8 1
7198 31 1
7199 14 1
7200 24 1
7200 29 6
7200 31 1
7201 34 1
7202 26 1
7202 29 1
7203 24 1
7204 5 1
7205 31 5
7206 18 4
7206 19 6
7206 20 3
7207 24 1
7207 29 1
7208 24 1
7208 38 1
7209 3 1
7210 23 1
7210 24 10
7211 20 1
7212 29 1
7213 2 1
7215 3 1
7216 24 11
7217 28 1
7217 38 1
7218 15 3
7218 16 1
7218 21 1
7219 7 4
7219 8 3
7220 8 1
7220 21 1
7221 10 1
7222 10 1
7222 29 1
7223 8 1
7223 15 1
7224 12 2
7225 31 11
7226 12 1
7226 18 1
7226 23 1
7226 24 39
7227 34 1
7228 1 1
7228 2 25
7228 3 47
7228 34 58
7229 3 1
7230 9 1
7231 15 1
7231 16 3
7231 17 2
7232 3 1
7233 24 3
7233 29 10
7233 31 7
7234 34 1
7235 7 4
7235 8 7
7235 38 1
7236 17 1
7237 12 1
7238 15 3
7238 16 1
7239 9 1
7239 11 1
7240 26 1
7241 21 1
7242 1 2
7242 2 18
7242 3 31
7242 34 30
7243 12 3
7243 13 1
7243 14 1
7244 38 1
7245 3 1
7246 34 1
7247 17 1
7248 31 14
7249 4 10
7249 5 44
7249 38 40
7250 19 1
7251 19 1
7251 31 1
7252 31 1
7253 5 1
7254 9 2
7254 10 4
7254 11 5
7255 34 1
7256 31 1
7257 2 1
7257 3 4
7257 34 3
7258 12 1
7259 10 1
7259 12 1
7260 16 1
7261 31 1
7261 33 1
7262 28 1
7263 5 1
7263 12 7
7263 13 1
7263 14 8
7263 34 1
7263 38 6
7264 5 1
7265 34 1
7266 2 10
7266 3 9
7266 34 23
7267 24 1
7267 29 10
7267 30 1
7268 28 2
7269 12 1
7269 18 2
7269 19 3
7269 20 1
7269 21 3
7269 22 2
7270 3 1
7270 5 1
7271 18 1
7272 24 1
7273 9 1
7273 10 1
7274 19 1
7274 24 8
7275 29 1
7276 38 1
7277 7 3
7277 8 4
7277 11 1
7278 24 14
7279 10 1
7279 19 1
7279 29 9
7279 30 1
7280 5 1
7281 19 1
7282 24 1
7283 2 1
7283 3 1
7283 34 2
7284 21 1
7285 3 1
7286 18 4
7286 19 10
7286 20 3
7286 34 2
7287 12 1
7287 31 5
7287 34 1
7288 9 18
7288 10 14
7288 11 3
7289 10 1
7290 19 1
7291 24 22
7292 19 1
7293 4 3
7293 5 10
7293 31 1
7293 38 11
7294 9 1
7295 29 4
7296 8 1
7296 34 1
7297 9 3
7298 31 1
7299 38 1
7300 34 1
7300 38 1
7301 9 1
7302 2 2
7302 4 1
7302 5 3
7302 38 6
7303 10 2
7304 3 1
7304 21 24
7304 22 19
7305 24 23
7306 19 1
7306 24 1
7306 38 1
7307 18 1
7307 31 6
7307 34 1
7308 19 1
7308 29 1
7308 38 1
7309 24 1
7310 5 1
7310 7 3
7310 8 12
7311 16 1
7312 10 1
7313 4 5
7313 5 16
7313 19 1
7313 24 5
7313 26 5
7313 38 18
7314 10 1
7315 17 1
7316 3 1
7316 12 23
7316 13 3
7316 14 14
7317 20 1
7318 34 1
7319 22 1
7320 26 6
7321 19 1
7321 24 5
7321 31 1
7322 2 1
7322 3 9
7322 28 1
7322 34 20
7323 24 15
7324 31 1
7325 24 10
7326 11 2
7327 24 14
7328 3 1
7328 29 3
7329 19 1
7330 24 2
7331 14 3
7332 15 4
7332 16 4
7332 17 2
7333 21 1
7334 5 1
7334 15 14
7334 16 8
7334 17 3
7334 21 3
7335 20 1
7336 29 1
7337 2 3
7337 3 3
7337 34 5
7338 26 1
7339 34 1
7340 9 1
7340 34 1
7341 2 2
7341 3 1
7342 29 14
7343 3 1
7343 12 2
7343 14 1
7343 21 1
7344 2 1
7344 7 1
7344 28 1
7345 23 1
7345 24 21
7346 29 1
7347 18 1
7348 18 43
7348 19 54
7348 20 27
7348 24 1
7349 34 1
7350 4 2
7350 5 20
7350 12 26
7350 13 1
7350 14 13
7350 38 13
7351 26 2
7352 3 1
7353 7 5
7353 8 8
7354 3 1
7354 12 1
7354 34 1
7355 3 1
7356 5 1
7357 10 1
7358 24 7
7359 15 1
7360 28 1
7361 38 1
7362 1 1
7362 2 11
7362 3 15
7362 34 16
7363 34 1
7364 24 1
7365 18 1
7365 19 15
7365 20 4
7365 29 1
7366 34 1
7367 19 1
7368 24 18
7368 34 1
7369 26 1
7370 29 1
7371 18 1
7372 17 1
7373 31 2
7373 34 1
7374 5 1
7375 7 1
7375 26 1
7375 34 1
7376 5 1
7376 24 2
7376 38 1
7377 21 1
7378 5 1
7378 12 11
7378 13 1
7378 14 6
7379 29 1
7380 12 1
7381 3 1
7381 18 1
7382 2 1
7383 7 1
7383 8 3
7384 12 13
7384 14 9
7385 3 1
7386 2 1
7386 31 1
7387 15 1
7388 30 1
7389 34 1
7390 4 3
7390 5 15
7390 38 13
7391 5 1
7391 17 1
7391 34 1
7392 5 1
7392 24 1
7392 34 1
7393 21 17
7393 22 14
7394 4 2
7394 5 14
7394 38 10
7395 26 6
7396 26 6
7397 2 1
7398 29 8
7399 19 1
7400 29 1
7401 5 3
7401 38 1
7402 3 1
7402 15 42
7402 16 16
7402 17 19
7403 5 1
7404 1 1
7404 3 6
7404 34 7
7405 2 1
7406 24 11
7406 26 4
7407 3 1
7408 5 1
7409 28 1
7409 29 1
7410 19 1
7411 18 6
7411 19 8
7411 20 2
7412 34 1
7413 31 1
7414 34 1
7415 3 1
7416 24 17
7417 4 4
7417 5 15
7417 38 25
7418 28 14
7418 34 1
7419 38 1
7420 16 1
7420 22 1
7421 31 20
7421 38 1
7422 18 1
7423 28 1
7424 15 11
7424 16 4
7424 17 8
7425 7 1
7426 20 1
7427 21 6
7427 22 10
7427 34 1
7428 34 1
7429 24 1
7430 34 1
7431 29 5
7432 21 5
7432 22 2
7433 34 1
7434 3 1
7434 12 1
7434 24 3
7435 10 5
7436 15 1
7436 30 1
7437 12 1
7438 3 1
7439 4 1
7439 24 1
7439 26 3
7440 3 1
7440 24 6
7441 4 3
7441 5 30
7441 38 22
7442 3 1
7443 4 9
7443 5 25
7443 38 33
7444 5 1
7445 28 6
7445 34 1
7446 19 1
7447 30 1
7448 24 6
7449 2 1
7450 24 1
7451 26 1
7452 21 1
7453 2 1
7453 4 4
7453 5 47
7453 29 1
7453 31 2
7453 38 48
7454 29 5
7454 30 1
7455 14 1
7455 24 5
7455 29 1
7456 5 4
7456 12 1
7456 38 1
7457 9 7
7457 10 21
7457 11 7
7457 15 1
7458 2 1
7458 29 1
7459 12 1
7459 14 1
7460 34 1
7461 25 1
7461 26 4
7462 24 1
7462 28 1
7462 31 18
7463 9 2
7463 10 1
7464 38 1
7465 38 1
7466 15 1
7467 4 1
7467 5 20
7467 38 27
7468 29 1
7469 4 1
7469 19 2
7470 28 1
7470 29 1
7470 34 1
7471 26 1
7472 28 1
7473 29 2
7473 30 1
7474 19 1
7475 18 1
7475 19 1
7476 17 1
7477 34 1
7478 11 1
7478 28 2
7479 5 1
7479 34 1
7480 29 15
7481 10 1
7481 11 1
7481 19 1
7482 2 11
7482 3 6
7482 26 3
7482 34 11
7483 29 1
7483 30 1
7484 26 1
7485 18 1
7486 5 1
7486 9 14
7486 10 29
7486 11 12
7487 21 1
7488 26 4
7489 10 1
7490 21 23
7490 22 12
7491 18 1
7491 20 1
7491 31 12
7491 32 1
7492 2 6
7492 3 12
7492 23 1
7492 24 5
7492 29 1
7492 34 8
7493 10 1
7493 12 1
7494 9 1
7495 7 7
7495 8 2
7495 19 1
7496 12 1
7497 28 2
7497 29 1
7498 14 1
7499 18 1
7500 24 5
7501 5 1
7501 9 2
7501 11 1
7502 14 1
7502 22 1
7503 15 10
7503 16 4
7503 17 6
7503 34 1
7504 21 14
7504 22 10
7505 24 1
7506 25 2
7506 26 2
7507 28 2
7508 31 2
7509 3 1
7509 14 3
7510 26 1
7510 38 1
7511 29 1
7512 29 1
7513 38 1
7514 29 20
7515 2 1
7515 3 5
7515 34 3
7516 29 1
7517 18 1
7518 31 18
7519 2 1
7520 26 5
7521 27 1
7521 28 2
7522 9 1
7522 12 6
7522 14 2
7522 19 1
7523 4 1
7523 5 1
7523 21 1
7523 38 3
7524 3 1
7525 2 3
7525 3 8
7525 34 8
7526 4 2
7526 5 3
7526 38 5
7527 15 1
7527 16 1
7527 17 3
7527 34 1
7528 2 1
7529 34 1
7530 3 1
7531 5 1
7531 15 15
7531 16 11
7531 17 4
7532 21 1
7533 7 5
7533 8 1
7534 18 1
7534 38 1
7535 34 1
7536 29 1
7537 12 1
7538 5 1
7538 26 1
7538 29 1
7539 38 1
7540 12 1
7541 2 4
7541 3 3
7541 29 2
7541 34 4
7542 3 3
7542 24 1
7542 34 1
7543 1 1
7543 2 6
7543 3 10
7543 29 4
7543 34 7
7544 38 1
7545 2 1
7545 3 1
7545 18 1
7546 18 1
7547 16 1
7548 24 1
7548 38 1
7549 22 1
7550 16 1
7551 21 18
7551 22 9
7552 24 1
7553 15 1
7554 31 1
7555 14 1
7555 29 1
7556 24 8
7557 12 1
7557 14 1
7557 29 1
7558 22 1
7559 21 1
7560 1 2
7560 2 27
7560 3 42
7560 24 3
7560 34 43
7561 2 18
7561 3 24
7561 34 28
7562 19 1
7563 23 1
7564 3 1
7565 14 1
7565 19 1
7566 17 1
7567 3 1
7568 3 1
7568 19 1
7569 38 1
7570 2 1
7571 2 1
7571 3 1
7572 24 3
7573 2 1
7573 22 1
7574 18 1
7574 24 21
7575 24 1
7576 3 1
7577 2 4
7577 3 9
7577 34 7
7578 12 1
7579 29 1
7580 5 2
7580 38 2
7581 15 1
7582 28 3
7583 16 1
7583 24 3
7584 14 1
7585 28 1
7586 2 5
7586 3 4
7586 29 1
7586 34 2
7587 10 1
7587 29 9
7587 30 2
7588 28 1
7589 38 1
7590 24 5
7591 19 1
7592 12 3
7593 22 1
7594 25 1
7595 24 6
7596 18 5
7596 19 2
7597 4 6
7597 5 14
7597 24 4
7597 29 1
7597 34 1
7597 38 15
7598 5 1
7599 18 1
7600 24 16
7601 19 1
7602 29 3
7603 24 1
7604 2 2
7604 3 7
7604 34 5
7605 24 4
7606 29 26
7606 30 1
7607 30 1
7608 12 13
7608 14 3
7608 15 5
7608 16 2
7608 17 2
7609 3 1
7609 18 27
7609 19 30
7609 20 17
7610 14 1
7611 29 1
7612 2 1
7612 4 3
7612 5 3
7612 20 1
7612 38 9
7613 4 2
7613 5 10
7613 38 10
7614 3 1
7615 18 2
7615 19 8
7615 20 6
7616 5 1
7617 29 1
7618 14 1
7619 21 1
7620 17 1
7621 26 1
7622 38 1
7623 18 1
7624 5 1
7625 17 1
7626 24 3
7627 18 1
7628 26 1
7629 29 5
7629 30 1
7630 29 1
7631 2 1
7632 12 3
7632 14 1
7633 29 1
7634 18 1
7634 31 3
7635 19 1
7636 14 1
7637 31 17
7638 7 1
7638 8 5
7639 24 1
7640 5 1
7641 9 9
7641 10 18
7641 11 10
7641 29 1
7642 20 1
7643 29 8
7643 30 1
7644 33 1
7645 4 2
7645 5 3
7645 38 8
7646 15 2
7647 28 3
7648 10 2
7648 24 7
7649 5 7
7649 38 9
7650 24 9
7651 2 2
7651 24 1
7652 24 5
7653 2 1
7653 18 8
7653 19 22
7653 20 6
7654 18 7
7654 19 21
7654 20 5
7655 4 1
7655 5 3
7655 38 3
7656 19 1
7657 4 2
7657 5 9
7657 38 10
7658 1 1
7658 2 13
7658 3 13
7658 18 1
7658 34 14
7659 2 1
7659 19 1
7659 24 6
7660 1 1
7660 2 3
7660 3 13
7660 34 17
7661 3 1
7661 11 1
7661 15 1
7661 19 2
7662 38 1
7663 26 3
7663 34 1
7664 12 51
7664 13 2
7664 14 30
7665 9 17
7665 10 18
7665 11 10
7666 11 1
7667 2 2
7667 9 1
7667 34 3
7668 24 1
7669 11 1
7670 38 1
7671 31 1
7672 18 16
7672 19 11
7672 20 9
7673 24 1
7674 8 1
7674 18 1
7674 19 2
7674 20 1
7674 34 1
7675 34 1
7676 2 7
7676 3 12
7676 16 1
7676 34 8
7677 18 1
7677 24 6
7677 26 1
7678 23 1
7678 24 9
7679 2 3
7679 3 2
7679 34 3
7680 3 1
7681 18 1
7682 38 1
7683 5 1
7683 11 1
7684 34 1
7685 34 1
7686 3 1
7687 5 2
7687 7 1
7687 8 1
7687 18 9
7687 19 15
7687 20 8
7687 34 1
7687 38 1
7688 29 17
7688 30 2
7688 34 1
7688 38 1
7689 4 5
7689 5 16
7689 38 20
7690 5 1
7691 12 1
7692 9 1
7693 18 2
7693 19 5
7693 20 1
7694 18 3
7694 19 9
7694 20 4
7695 31 2
7696 20 1
7697 29 12
7698 18 1
7698 19 3
7698 20 1
7699 15 7
7699 16 10
7699 17 6
7700 12 1
7700 22 1
7700 28 1
7701 2 1
7702 29 14
7702 30 2
7703 2 1
7704 2 18
7704 3 31
7704 34 6
7704 38 1
7705 15 26
7705 16 6
7705 17 10
7705 21 21
7706 23 1
7706 24 15
7706 29 1
7706 34 1
7707 31 4
7708 34 1
7709 4 1
7709 5 4
7709 34 1
7709 38 3
7710 34 1
7711 26 4
7712 2 4
7712 3 22
7712 34 25
7713 29 11
7713 30 1
7714 24 1
7714 31 3
7715 5 1
7716 2 1
7717 34 1
7718 12 1
7718 21 17
7718 22 14
7719 24 5
7720 38 1
7721 4 3
7721 5 11
7721 38 7
7722 22 1
7723 38 1
7724 9 2
7724 10 2
7725 3 1
7726 3 1
7727 24 2
7728 4 2
7728 34 1
7728 38 2
7729 29 11
7729 30 3
7730 22 1
7731 12 9
7731 14 2
7732 31 1
7733 24 1
7734 2 5
7734 3 16
7734 24 1
7734 34 6
7735 10 1
7735 29 7
7736 19 1
7737 3 1
7737 8 1
7738 26 1
7739 26 1
7739 29 1
7740 2 1
7740 26 3
7741 3 1
7742 3 1
7742 17 1
7742 29 1
7742 31 1
7742 34 1
7743 15 44
7743 16 23
7743 17 16
7744 12 1
7745 24 5
7745 31 1
7745 38 1
7746 34 1
7747 19 1
7748 4 1
7748 5 8
7748 34 2
7748 38 7
7749 1 1
7749 3 1
7749 9 1
7749 10 1
7749 12 1
7749 15 1
7749 18 1
7749 19 2
7749 20 1
7749 21 1
7749 22 1
7749 29 1
7749 31 1
7749 34 1
7749 38 3
7750 12 1
7751 38 1
7752 5 1
7753 31 1
7754 29 1
7755 18 1
7755 19 1
7756 34 1
7757 38 1
7758 29 9
7758 30 1
7759 24 2
7760 5 1
7761 3 1
7761 4 1
7761 34 1
7762 11 1
7763 23 1
7763 24 10
7764 10 1
7764 19 1
7764 24 2
7764 38 1
7765 15 3
7765 16 2
7766 24 1
7767 18 3
7768 24 4
7768 29 2
7769 2 1
7770 12 1
7771 38 1
7772 19 1
7773 28 5
7774 2 1
7775 29 1
7776 7 2
7776 20 1
7776 21 6
7776 22 3
7776 31 1
7777 24 7
7778 29 39
7778 30 4
7779 24 2
7780 3 1
7780 11 1
7781 28 2
7782 29 1
7783 11 1
7783 21 1
7784 18 6
7784 19 5
7784 20 3
7785 10 1
7786 14 1
7787 12 1
7788 21 9
7788 22 3
7789 18 1
7789 34 1
7790 29 10
7791 38 1
7792 21 1
7793 31 5
7794 38 1
7795 21 1
7796 3 1
7797 3 1
7797 29 5
7797 30 1
7798 4 1
7798 5 9
7798 38 5
7799 24 2
7800 9 1
7801 3 1
7802 21 1
7803 31 1
7804 18 1
7805 20 1
7806 9 1
7806 20 1
7807 5 1
7808 22 1
7809 2 6
7809 3 10
7809 34 10
7810 5 23
7810 38 18
7811 1 1
7811 2 24
7811 3 33
7811 21 1
7811 34 27
7812 38 1
7813 18 1
7813 29 12
7813 30 2
7813 34 1
7814 9 1
7814 20 1
7815 2 10
7815 3 21
7815 34 21
7816 24 3
7817 24 6
7818 3 1
7819 29 1
7820 5 3
7820 38 3
7821 21 1
7822 19 1
7823 21 1
7824 21 16
7824 22 12
7825 21 6
7825 22 6
7826 14 6
7826 19 1
7827 10 1
7828 24 1
7829 24 2
7830 24 1
7831 29 1
7832 26 3
7833 26 1
7834 2 1
7834 38 1
7835 26 4
7836 12 1
7836 18 2
7837 29 1
7838 29 5
7838 30 1
7839 7 5
7839 8 3
7839 11 1
7839 18 1
7839 19 3
7839 20 1
7840 4 1
7841 24 1
7842 2 1
7843 26 3
7844 31 1
7845 2 1
7846 4 9
7846 5 18
7846 38 19
7847 34 1
7848 24 1
7848 28 4
7849 24 1
7850 18 1
7851 24 1
7852 24 14
7853 12 1
7853 22 1
7854 22 1
7855 12 8
7855 14 9
7856 18 1
7856 21 4
7856 22 4
7857 5 1
7858 9 28
7858 11 23
7859 38 1
7860 5 1
7860 9 4
7860 10 6
7860 11 10
7861 34 1
7862 5 1
7863 1 1
7863 2 13
7863 3 43
7863 5 1
7863 34 49
7864 2 1
7865 4 11
7865 5 41
7865 38 50
7866 24 1
7866 29 2
7867 24 1
7868 24 1
7869 12 1
7869 24 18
7870 29 1
7871 4 3
7871 5 29
7871 38 19
7872 19 1
7872 28 4
7873 38 1
7874 29 12
7874 31 1
7875 21 1
7876 19 1
7876 26 7
7877 38 1
7878 21 2
7878 22 2
7879 19 1
7880 21 4
7880 22 4
7881 2 1
7881 3 2
7881 34 1
7882 31 1
7883 2 1
7884 21 1
7885 18 1
7885 19 1
7886 2 13
7886 3 34
7886 34 38
7887 24 5
7888 17 1
7889 38 1
7890 31 1
7890 34 1
7891 21 1
7891 29 2
7892 4 1
7892 5 4
7892 38 8
7893 34 1
7894 3 1
7895 10 1
7896 16 1
7897 2 1
7897 3 14
7897 29 1
7897 34 7
7898 5 7
7898 10 1
7898 38 6
7899 2 8
7899 3 13
7899 34 17
7900 12 23
7900 13 1
7900 14 16
7901 4 2
7901 5 7
7901 38 13
7902 4 4
7902 5 18
7902 38 30
7903 2 1
7904 12 1
7904 24 9
7905 9 2
7906 24 1
7907 14 1
7907 24 11
7908 21 1
7909 10 1
7909 31 4
7910 1 1
7910 2 5
7910 3 5
7910 31 1
7910 34 8
7911 24 1
7912 22 1
7912 29 9
7913 28 2
7914 38 1
7915 18 1
7916 5 1
7917 3 1
7917 19 1
7918 18 1
7918 24 11
7919 3 1
7920 3 1
7921 15 26
7921 16 20
7921 17 30
7922 12 1
7923 18 1
7924 9 21
7924 10 20
7924 11 14
7925 5 1
7926 24 4
7927 24 8
7928 15 1
7929 3 1
7930 1 1
7930 2 5
7930 3 8
7930 28 3
7930 34 6
7931 14 1
7931 24 2
7932 9 14
7932 10 23
7932 11 12
7932 19 1
7933 5 5
7933 38 2
7934 18 1
7934 21 10
7934 22 6
7935 23 2
7935 24 5
7936 7 1
7936 8 1
7936 23 1
7936 24 20
7937 5 1
7938 18 24
7938 19 39
7938 20 3
7939 22 1
7940 19 1
7941 4 1
7941 5 5
7941 38 3
7942 24 12
7943 21 17
7943 22 10
7944 29 3
7945 24 1
7946 28 3
7947 18 14
7947 19 21
7947 20 20
7948 3 1
7949 1 1
7949 18 1
7949 34 1
7950 19 1
7951 3 1
7951 15 1
7951 34 1
7952 5 1
7952 29 27
7952 30 1
7953 24 1
7954 2 1
7954 3 1
7955 3 1
7955 5 1
7956 8 1
7956 24 1
7956 26 2
7957 31 12
7958 9 1
7958 11 1
7959 3 1
7959 34 1
7959 38 3
7960 24 1
7961 34 1
7962 26 1
7963 23 1
7963 24 12
7964 21 1
7965 34 1
7966 31 1
7967 17 1
7968 4 1
7968 5 11
7968 21 15
7968 22 16
7968 34 1
7968 38 16
7969 34 1
7970 24 1
7971 3 1
7971 28 1
7971 31 1
7972 24 5
7973 2 10
7973 3 20
7973 25 1
7973 34 13
7974 7 7
7974 8 8
7975 28 1
7976 21 2
7976 28 4
7977 3 1
7978 10 1
7979 24 1
7980 2 2
7981 3 1
7982 22 1
7983 34 1
7984 22 1
7984 24 13
7985 15 1
7985 18 1
7986 3 1
7987 21 1
7988 24 20
7989 4 2
7989 5 11
7989 29 1
7989 38 8
7990 7 3
7990 8 10
7990 29 1
7991 19 3
7992 12 1
7993 24 3
7994 3 1
7995 2 1
7995 3 4
7995 34 8
7996 21 1
7997 4 3
7997 5 13
7997 18 1
7997 38 11
7998 2 3
7998 3 1
7998 34 3
7999 19 1
8000 26 1
8001 14 1
8001 18 41
8001 19 58
8001 20 12
8002 2 2
8002 3 11
8002 34 15
8003 4 1
8003 5 3
8003 38 5
8004 18 5
8004 19 8
8005 15 1
8006 28 1
8007 18 12
8007 19 7
8007 20 3
8008 12 1
8009 18 3
8009 19 4
8009 20 3
8010 19 1
8011 3 1
8012 18 1
8013 18 1
8013 22 1
8014 1 1
8015 31 1
8016 24 8
8017 12 8
8017 13 1
8017 14 1
8018 24 1
8019 15 3
8020 31 1
8021 8 1
8022 34 1
8023 19 1
8023 26 1
8024 34 1
8025 2 1
8025 3 2
8025 5 1
8025 10 1
8025 12 1
8025 14 1
8025 18 1
8025 21 1
8025 22 1
8025 24 1
8025 29 1
8026 28 1
8027 3 1
8028 18 1
8029 2 1
8029 3 7
8029 34 6
8030 5 1
8030 28 10
8031 29 1
8031 34 1
8032 4 1
8033 19 1
8034 2 1
8035 4 1
8035 5 4
8035 38 6
8036 31 1
8037 21 10
8037 22 5
8038 8 1
8039 7 12
8039 8 10
8040 18 3
8040 19 4
8040 20 4
8041 29 16
8041 30 2
8042 29 1
8043 3 1
8043 21 15
8043 22 17
8044 27 1
8044 28 3
8045 21 1
8046 19 1
8047 2 5
8047 3 15
8047 15 1
8047 26 10
8047 28 4
8047 34 17
8048 2 1
8048 3 1
8048 5 1
8048 34 1
8049 38 1
8050 18 30
8050 19 28
8050 20 13
8051 9 1
8052 14 1
8053 18 12
8053 19 15
8053 20 4
8054 24 1
8055 29 12
8055 30 2
8056 34 1
8057 8 1
8058 20 1
8059 28 4
8059 38 1
8060 5 1
8061 18 1
8061 19 1
8061 20 3
8061 29 1
8062 3 1
8063 18 1
8063 29 10
8064 38 1
8065 24 2
8065 28 2
8066 24 1
8067 31 3
8067 38 1
8068 28 3
8069 38 1
8070 9 15
8070 10 17
8070 11 11
8071 30 1
8072 10 1
8072 22 1
8073 2 1
8074 3 1
8074 29 9
8075 24 3
8075 31 3
8076 29 1
8077 34 1
8078 38 1
8079 10 2
8080 20 1
8081 3 1
8081 4 3
8081 5 22
8081 38 15
8082 2 8
8082 3 3
8082 34 6
8083 34 1
8084 8 1
8085 16 1
8086 21 1
8086 31 1
8087 31 14
8088 9 2
8088 10 7
8088 11 1
8089 21 1
8090 4 1
8091 24 3
8092 24 9
8093 24 3
8093 38 1
8094 10 1
8095 3 1
8096 38 1
8097 28 1
8098 20 1
8098 28 3
8099 19 1
8099 24 4
8099 26 1
8100 2 1
8101 5 1
8101 19 1
8102 19 1
8102 25 2
8102 26 10
8103 29 7
8103 30 1
8104 38 1
8105 2 3
8105 3 11
8105 34 17
8106 19 1
8106 26 2
8107 3 1
8108 34 1
8109 9 2
8109 10 3
8109 11 4
8109 12 1
8110 18 1
8110 34 1
8111 2 1
8112 5 1
8113 9 1
8113 19 1
8113 29 7
8113 30 1
8114 31 4
8115 2 2
8115 3 3
8115 34 8
8116 29 1
8117 34 1
8118 31 1
8119 29 1
8120 18 1
8121 28 3
8122 19 1
8123 5 1
8123 9 5
8123 10 17
8123 11 9
8123 38 1
8124 9 1
8124 29 1
8124 31 6
8125 12 1
8126 11 1
8126 15 1
8127 3 1
8128 2 4
8128 34 2
8129 12 1
8129 30 1
8129 31 3
8130 2 1
8131 3 1
8131 19 1
8132 5 1
8133 12 8
8133 14 1
8134 21 2
8134 24 1
8134 31 2
8135 22 1
8136 3 1
8136 21 1
8137 3 1
8138 29 1
8139 34 1
8140 28 2
8141 2 5
8141 3 17
8141 18 1
8141 34 14
8142 26 1
8143 2 1
8144 5 1
8144 18 5
8144 19 7
8144 20 1
8144 29 1
8144 34 1
8145 34 2
8146 34 1
8147 19 1
8147 31 1
8148 12 1
8149 29 10
8149 30 1
8149 38 1
8150 9 1
8151 12 2
8151 14 3
8152 24 32
8153 16 1
8154 38 1
8155 24 1
8156 7 1
8157 22 1
8158 21 1
8159 19 1
8160 29 1
8162 2 2
8162 3 5
8162 34 5
8163 7 9
8163 8 12
8164 3 1
8165 14 1
8165 24 3
8165 26 2
8166 19 1
8167 5 1
8167 24 9
8168 34 1
8169 2 1
8170 24 5
8171 17 1
8172 1 3
8172 2 10
8172 3 18
8172 34 14
8173 26 2
8174 2 1
8174 34 1
8175 29 8
8176 22 1
8177 24 9
8178 5 11
8178 38 13
8179 28 9
8179 29 1
8180 9 1
8181 18 1
8181 19 1
8181 38 1
8182 8 1
8183 34 1
8184 3 1
8185 3 1
8185 10 1
8186 29 8
8187 29 19
8187 30 3
8188 2 1
8189 21 43
8189 22 21
8190 20 1
8191 24 19
8191 31 1
8192 21 1
8193 12 1
8193 21 21
8193 22 11
8193 34 2
8194 10 1
8194 28 1
8195 38 1
8196 19 5
8197 2 1
8197 18 1
8197 19 3
8198 2 1
8199 3 1
8199 38 1
8200 21 1
8201 24 5
8202 9 1
8203 14 1
8204 3 1
8204 21 1
8205 9 5
8205 10 12
8205 11 3
8206 3 2
8206 5 1
8206 14 1
8206 24 1
8206 34 1
8206 38 1
8207 8 1
8208 26 1
8209 1 1
8209 2 13
8209 3 35
8209 12 1
8209 34 34
8210 4 4
8210 5 19
8210 38 19
8211 29 1
8212 34 1
8213 20 1
8214 5 1
8215 21 17
8215 22 17
8216 3 1
8217 30 1
8218 38 1
8219 38 1
8220 34 1
8221 24 6
8222 21 30
8222 22 19
8223 24 10
8224 24 1
8225 31 1
8226 8 1
8227 24 4
8227 31 4
8228 34 1
8229 18 14
8229 19 23
8229 20 6
8230 31 11
8231 24 1
8232 12 6
8232 14 4
8233 1 1
8234 31 2
8235 2 1
8235 7 1
8236 24 1
8237 5 1
8238 31 13
8239 2 2
8239 3 11
8239 34 10
8240 2 15
8240 3 42
8240 34 51
8241 24 8
8242 12 1
8242 14 3
8242 24 1
8243 28 3
8244 28 4
8245 31 15
8246 4 1
8246 5 8
8246 38 15
8247 2 1
8247 23 1
8247 24 5
8248 31 6
8248 33 1
8249 21 13
8249 22 12
8250 3 1
8250 34 1
8251 13 1
8252 21 1
8253 18 44
8253 19 51
8253 20 18
8254 31 7
8255 3 1
8256 29 1
8257 3 1
8258 34 1
8259 4 1
8259 5 5
8259 38 8
8260 19 1
8261 24 28
8262 19 1
8263 31 1
8264 5 1
8264 8 1
8264 15 1
8264 26 16
8264 29 35
8264 30 3
8265 15 1
8266 12 1
8267 5 1
8268 21 1
8268 22 2
8269 10 1
8270 7 1
8271 29 4
8272 29 1
8273 3 1
8274 12 21
8274 14 8
8275 29 1
8276 15 1
8277 29 3
8277 30 1
8278 7 1
8278 19 2
8278 38 1
8279 34 1
8280 7 44
8280 8 52
8281 2 1
8282 34 1
8283 18 1
8283 34 1
8284 7 1
8284 8 1
8284 19 1
8284 26 1
8285 34 1
8286 5 1
8287 7 1
8287 8 1
8288 28 1
8289 21 5
8289 22 1
8290 24 3
8291 25 1
8291 26 5
8292 12 1
8292 14 1
8293 8 1
8293 31 4
8294 31 1
8295 21 2
8296 19 5
8297 2 1
8297 21 1
8298 9 6
8298 10 7
8298 11 10
8298 19 1
8299 34 1
8300 28 6
8301 5 1
8302 9 2
8302 10 2
8302 11 2
8303 5 1
8304 11 1
8304 17 1
8305 29 2
8306 3 1
8306 18 1
8306 19 2
8306 24 1
8307 12 1
8307 14 1
8307 19 1
8308 24 1
8309 15 1
8310 3 1
8311 12 1
8312 19 1
8313 2 8
8313 3 8
8313 29 1
8313 34 8
8314 3 1
8315 17 1
8316 29 18
8316 30 3
8317 29 1
8318 19 1
8319 3 1
8319 9 1
8319 20 1
8319 26 1
8320 22 2
8321 5 1
8322 34 1
8323 31 1
8324 14 1
8325 3 1
8326 7 6
8326 8 7
8327 29 5
8328 18 6
8328 19 8
8328 20 8
8328 28 1
8329 9 15
8329 10 8
8329 11 8
8329 24 1
8330 26 6
8331 3 1
8332 18 1
8333 21 3
8333 22 1
8333 24 1
8334 28 3
8335 34 1
8336 4 3
8336 5 16
8336 38 14
8337 19 3
8338 5 1
8339 19 1
8340 18 13
8340 19 17
8340 20 7
8341 12 59
8341 13 2
8341 14 29
8342 24 1
8343 34 1
8344 19 1
8344 21 1
8344 38 1
8345 9 3
8345 10 10
8345 11 4
8346 29 1
8347 34 1
8348 2 1
8349 1 1
8349 2 6
8349 3 16
8349 34 16
8350 24 1
8351 24 9
8352 9 1
8352 15 1
8352 18 1
8353 9 1
8354 9 8
8354 10 17
8354 11 13
8354 21 1
8355 28 1
8356 5 1
8357 29 2
8358 28 1
8358 29 1
8359 11 1
8360 19 1
8361 15 9
8361 16 4
8361 17 7
8361 19 2
8362 29 1
8363 29 1
8364 3 1
8364 18 2
8364 19 1
8364 20 1
8365 2 1
8365 29 1
8365 38 1
8366 2 6
8366 3 7
8366 34 4
8367 3 1
8368 3 1
8368 19 1
8368 24 2
8369 24 1
8370 18 2
8370 19 3
8371 24 1
8372 34 1
8373 10 1
8374 10 1
8374 26 1
8375 21 20
8375 22 19
8375 29 1
8376 31 1
8377 28 1
8378 1 1
8378 2 9
8378 3 14
8378 34 18
8379 24 4
8380 24 15
8381 9 2
8381 10 2
8381 11 2
8382 9 1
8383 2 14
8383 3 24
8383 23 1
8383 24 14
8383 34 24
8384 19 1
8385 3 1
8385 24 1
8386 14 1
8387 24 1
8388 19 1
8388 20 1
8389 29 1
8390 1 1
8390 2 4
8390 3 12
8390 21 1
8390 34 12
8391 1 1
8391 2 10
8391 3 16
8391 34 17
8392 7 1
8393 24 1
8394 34 1
8394 38 2
8395 18 1
8395 28 1
8396 17 1
8397 34 1
8398 2 2
8398 19 1
8398 34 4
8399 3 1
8400 24 9
8400 31 1
8401 12 1
8402 31 1
8403 24 1
8404 38 1
8405 28 2
8406 18 1
8407 26 1
8408 34 2
8409 9 1
8409 15 4
8409 16 4
8409 17 2
8409 38 1
8410 18 1
8410 29 2
8411 34 1
8412 31 1
8413 3 1
8414 3 1
8414 4 2
8414 5 1
8414 12 1
8414 19 2
8414 20 1
8414 34 3
8414 38 1
8415 5 1
8416 3 2
8416 18 27
8416 19 61
8416 20 16
8416 21 1
8417 10 1
8418 2 3
8418 3 1
8418 34 1
8419 7 3
8419 8 1
8419 10 1
8419 12 1
8419 21 2
8419 22 2
8420 19 1
8421 24 1
8422 4 1
8422 5 3
8422 38 1
8423 5 1
8424 31 4
8425 9 1
8426 21 1
8427 19 1
8428 2 1
8428 3 25
8428 34 28
8429 31 1
8430 24 7
8431 3 1
8431 31 1
8432 38 1
8433 3 1
8433 24 21
8434 12 1
8434 18 28
8434 19 36
8434 20 7
8435 38 3
8436 38 1
8437 24 16
8438 5 1
8438 24 1
8439 34 1
8440 34 2
8441 34 1
8442 24 1
8443 34 1
8444 11 1
8444 24 12
8444 28 1
8444 34 1
8445 18 4
8445 19 2
8445 20 3
8446 12 1
8447 12 1
8448 18 4
8448 19 5
8448 20 5
8448 31 1
8449 2 13
8449 3 36
8449 34 38
8450 3 1
8450 19 1
8450 31 23
8451 21 1
8451 38 1
8452 19 1
8453 4 1
8453 5 1
8454 28 1
8455 29 9
8456 2 4
8456 29 1
8457 3 1
8458 24 1
8459 7 3
8459 8 3
8459 15 1
8459 24 1
8460 1 1
8460 2 3
8460 3 16
8460 34 8
8461 26 3
8461 29 5
8461 30 1
8462 24 24
8463 2 1
8463 18 1
8463 19 6
8463 20 2
8463 34 1
8464 18 2
8464 19 3
8464 20 1
8465 19 1
8466 21 1
8467 12 12
8467 14 11
8468 21 1
8468 22 2
8469 28 2
8470 29 10
8470 30 1
8471 7 2
8471 8 1
8472 11 1
8473 9 1
8474 15 5
8474 16 2
8474 17 1
8475 29 9
8475 30 1
8476 18 1
8477 2 1
8478 5 1
8478 21 3
8478 22 1
8478 24 1
8479 4 1
8480 2 1
8480 3 1
8480 34 2
8481 2 8
8481 3 26
8481 19 1
8481 34 28
8482 3 1
8483 28 1
8484 19 1
8485 1 2
8485 2 10
8485 3 17
8485 34 22
8486 38 1
8487 21 1
8487 22 3
8488 24 7
8489 30 1
8489 31 8
8490 3 1
8491 38 1
8492 2 1
8493 11 1
8493 26 1
8494 24 1
8495 2 1
8495 29 1
8496 3 1
8496 19 1
8496 24 3
8497 4 1
8497 29 9
8497 30 1
8498 28 1
8499 21 1
8500 18 1
8501 18 19
8501 19 27
8501 20 9
8501 38 1
8502 19 1
8503 14 1
8504 3 1
8505 38 1
8506 21 1
8506 29 5
8507 3 1
8507 30 1
8508 21 20
8508 22 10
8509 9 1
8510 28 1
8510 29 2
8511 38 1
8512 2 1
8512 24 5
8513 34 1
8514 9 13
8514 10 16
8514 11 4
8514 19 1
8514 34 1
8515 31 1
8516 12 20
8516 14 8
8517 24 11
8518 34 2
8519 31 2
8520 2 9
8520 3 18
8520 14 1
8520 34 5
8521 4 3
8521 5 8
8521 38 13
8522 17 2
8523 12 8
8523 14 8
8524 31 5
8525 14 1
8526 18 2
8527 34 1
8528 3 1
8528 7 1
8528 12 1
8528 15 1
8528 18 1
8528 19 1
8528 29 2
8528 34 1
8528 38 2
8529 29 14
8530 5 2
8530 38 6
8531 21 1
8531 31 4
8532 24 1
8533 31 5
8534 34 1
8535 20 2
8536 5 1
8536 38 2
8537 34 1
8538 28 2
8538 34 1
8539 9 1
8540 24 3
8541 18 40
8541 19 80
8541 20 24
8542 28 1
8543 26 1
8544 3 1
8545 34 3
8546 12 7
8546 14 8
8547 24 7
8548 5 10
8548 19 2
8548 22 1
8548 29 1
8548 38 9
8549 4 1
8549 5 13
8549 38 11
8550 5 1
8551 31 1
8552 3 1
8552 16 1
8553 26 3
8554 5 1
8555 12 17
8555 13 1
8555 14 5
8556 21 1
8557 18 1
8558 38 1
8559 4 5
8559 5 31
8559 38 36
8560 3 1
8560 22 1
8560 23 1
8560 24 22
8561 2 1
8561 38 1
8562 30 2
8563 29 8
8563 30 1
8564 30 1
8565 1 1
8565 2 21
8565 3 25
8565 34 29
8566 5 1
8566 29 2
8567 29 6
8567 30 1
8568 29 1
8569 11 1
8571 8 1
8572 29 1
8573 29 14
8573 30 1
8574 19 1
8574 29 1
8575 16 1
8576 34 1
8577 2 1
8578 3 1
8579 5 9
8579 38 4
8580 16 1
8581 29 1
8582 2 1
8583 29 1
8583 38 1
8584 8 1
8584 34 1
8585 38 1
8586 18 1
8586 24 3
8587 7 1
8588 26 8
8588 31 7
8589 31 1
8590 24 1
8591 29 4
8591 30 1
8592 15 26
8592 16 24
8592 17 20
8593 5 1
8593 7 7
8593 8 12
8593 11 1
8594 12 1
8595 12 1
8595 15 1
8596 21 10
8596 22 2
8597 31 10
8598 22 1
8599 3 1
8600 2 15
8600 3 20
8600 31 5
8600 34 13
8601 12 9
8601 14 10
8602 28 1
8603 3 1
8603 30 1
8603 34 1
8604 15 1
8604 16 2
8605 38 1
8606 18 1
8606 34 1
8607 24 10
8607 29 10
8608 2 1
8608 18 1
8608 22 2
8609 3 2
8609 24 9
8609 31 3
8610 21 5
8610 22 10
8611 2 1
8611 15 32
8611 16 15
8611 17 29
8612 38 1
8613 26 1
8614 31 16
8615 12 1
8615 20 1
8615 31 14
8616 21 5
8616 22 3
8617 19 1
8617 38 1
8618 7 1
8618 8 5
8619 14 1
8620 31 2
8621 34 1
8622 34 1
8623 5 1
8623 18 1
8623 19 1
8623 26 1
8624 3 3
8624 14 1
8624 24 13
8625 2 1
8626 38 1
8627 31 1
8628 34 1
8629 38 2
8630 2 1
8631 10 1
8631 29 10
8632 3 1
8632 4 1
8632 5 3
8633 17 1
8634 22 1
8635 34 1
8636 34 2
8637 24 8
8638 18 1
8639 38 1
8640 34 1
8641 31 14
8642 19 1
8643 7 8
8643 8 12
8644 24 5
8645 34 1
8646 11 1
8647 1 1
8647 2 7
8647 3 7
8647 34 18
8648 4 3
8648 5 24
8648 38 22
8649 18 14
8649 19 18
8649 20 9
8650 4 3
8650 5 17
8650 38 8
8651 1 2
8651 2 35
8651 3 56
8651 34 71
8652 34 1
8653 2 1
8654 3 1
8654 15 1
8655 18 2
8655 19 4
8655 20 2
8656 19 1
8656 20 1
8657 2 8
8657 3 6
8657 34 9
8658 24 12
8659 2 1
8660 11 1
8660 31 9
8661 18 1
8661 26 5
8661 34 1
8662 25 2
8662 26 12
8663 18 1
8663 26 1
8664 21 1
8664 22 4
8665 31 2
8666 2 1
8667 5 1
8667 10 1
8668 24 1
8669 18 1
8669 19 1
8670 15 3
8670 16 3
8670 17 3
8670 18 29
8670 19 41
8670 20 8
8670 29 1
8671 24 3
8672 34 1
8673 24 4
8674 31 1
8675 12 1
8676 2 1
8677 29 1
8678 2 1
8678 21 3
8678 22 2
8679 24 1
8680 2 1
8681 29 29
8681 30 1
8682 24 1
8683 2 1
8683 5 2
8683 18 1
8683 19 2
8683 34 2
8683 38 2
8684 9 1
8685 7 7
8685 8 23
8686 12 3
8686 14 2
8687 10 1
8688 34 1
8689 21 1
8690 1 1
8690 2 19
8690 3 44
8690 34 37
8691 18 1
8692 24 1
8693 34 1
8694 10 2
8695 5 10
8695 24 3
8695 38 13
8696 14 1
8697 22 1
8698 21 1
8699 22 1
8700 2 1
8701 12 1
8702 3 1
8702 34 1
8703 5 14
8703 38 15
8704 29 2
8705 4 2
8705 5 15
8705 38 12
8706 2 18
8706 3 28
8706 34 27
8707 38 1
8708 29 1
8709 10 1
8709 24 20
8710 4 2
8710 5 14
8710 13 2
8710 14 15
8710 19 1
8710 34 1
8710 38 15
8711 4 3
8711 5 30
8711 38 40
8712 24 1
8713 3 1
8714 3 1
8714 5 2
8714 38 4
8715 3 1
8716 5 1
8717 34 1
8718 38 1
8719 24 1
8720 24 10
8720 34 1
8721 29 1
8722 21 1
8722 22 1
8722 24 1
8723 5 1
8723 18 1
8723 34 1
8724 7 5
8724 8 5
8725 24 1
8726 38 1
8727 34 1
8728 2 18
8728 3 41
8728 34 35
8729 26 1
8730 24 1
8731 9 1
8732 18 1
8733 5 1
8733 7 1
8734 12 1
8735 3 1
8735 19 1
8736 11 1
8737 21 1
8738 29 2
8738 34 1
8739 19 1
8740 15 1
8741 25 1
8742 5 8
8742 38 6
8743 3 1
8743 29 7
8743 30 1
8744 22 1
8745 3 1
8746 10 1
8747 29 21
8747 30 4
8747 38 1
8748 7 1
8748 31 14
8749 21 16
8749 22 15
8750 26 1
8750 29 1
8751 28 4
8752 28 1
8753 38 1
8754 3 1
8754 29 2
8754 34 1
8755 1 1
8755 2 11
8755 3 24
8755 34 25
8756 12 2
8756 13 1
8756 14 2
8756 18 1
8756 19 1
8757 15 1
8758 7 2
8758 8 2
8759 10 1
8760 5 1
8760 21 5
8760 22 2
8761 15 13
8761 16 7
8761 17 3
8762 2 1
8762 3 4
8762 10 1
8762 34 2
8763 16 1
8764 31 15
8765 29 1
8766 4 1
8766 5 4
8766 38 6
8767 24 1
8767 29 2
8767 30 1
8768 29 1
8769 21 6
8769 22 4
8770 2 1
8771 4 2
8771 5 1
8771 38 1
8772 5 1
8773 3 1
8774 14 1
8774 28 4
8774 29 1
8774 30 1
8775 5 1
8776 9 6
8776 10 10
8776 11 6
8777 12 3
8777 21 1
8777 22 4
8777 24 1
8778 1 1
8778 2 14
8778 3 28
8778 11 1
8778 34 23
8779 1 1
8779 3 1
8780 28 2
8781 3 1
8782 38 1
8783 15 1
8783 24 4
8784 2 1
8784 3 8
8784 5 1
8784 7 4
8784 8 15
8784 34 2
8785 29 13
8785 34 2
8786 8 1
8786 15 1
8786 16 2
8786 17 1
8786 38 1
8787 11 5
8788 28 3
8788 29 1
8789 12 21
8789 13 1
8789 14 16
8790 5 1
8791 26 6
8792 28 1
8793 2 1
8793 3 1
8793 38 1
8794 14 1
8794 18 1
8795 24 2
8796 3 1
8796 24 1
8797 34 1
8798 5 1
8799 29 2
8800 34 1
8801 20 1
8801 29 1
8802 5 13
8802 38 7
8803 24 1
8804 38 1
8805 38 1
8806 5 1
8807 19 1
8807 38 1
8808 4 4
8808 5 14
8808 38 28
8809 12 1
8810 24 1
8810 28 2
8811 23 1
8811 24 17
8811 38 2
8812 1 2
8812 2 12
8812 3 14
8812 34 19
8813 34 1
8814 3 1
8814 24 6
8815 12 1
8816 4 2
8816 5 14
8816 38 14
8817 11 1
8817 29 2
8818 4 5
8818 5 23
8818 38 30
8819 4 1
8820 5 1
8820 21 1
8820 38 1
8821 7 1
8822 24 5
8823 3 1
8824 31 1
8825 38 1
8826 8 3
8827 23 1
8827 24 7
8828 2 1
8828 18 1
8828 19 3
8829 12 1
8830 4 11
8830 5 66
8830 14 1
8830 24 1
8830 38 76
8831 38 1
8832 15 1
8832 31 1
8833 24 5
8834 18 1
8835 8 1
8836 3 1
8836 19 1
8836 28 1
8837 22 1
8838 2 1
8838 18 1
8838 21 17
8838 22 17
8839 29 1
8840 5 2
8840 8 1
8840 38 1
8841 24 17
8842 19 1
8843 28 1
8844 28 5
8845 34 1
8846 21 16
8846 22 4
8847 4 2
8847 5 21
8847 7 17
8847 8 16
8847 10 2
8847 11 1
8847 38 22
8848 10 1
8848 12 1
8849 11 1
8850 19 1
8851 29 15
8851 30 1
8852 21 3
8852 31 1
8853 14 1
8854 5 2
8854 38 2
8855 10 1
8856 22 1
8856 29 1
8857 10 1
8858 29 1
8859 31 1
8860 19 1
8861 34 1
8862 3 1
8863 18 2
8863 19 11
8863 20 1
8864 12 16
8864 13 1
8864 14 18
8865 24 2
8866 38 1
8867 3 1
8867 4 5
8867 5 29
8867 38 29
8868 12 17
8868 14 4
8869 31 10
8870 2 1
8871 9 1
8872 12 6
8872 14 4
8872 34 1
8873 24 5
8874 19 1
8875 34 1
8876 2 1
8876 3 1
8876 34 3
8877 15 1
8877 17 1
8878 18 1
8879 29 1
8880 29 1
8881 31 1
8882 38 1
8883 4 2
8883 5 4
8883 38 9
8884 7 9
8884 8 4
8885 3 1
8886 10 1
8886 23 1
8886 24 11
8887 2 16
8887 3 20
8887 34 28
8888 24 2
8888 31 2
8889 28 1
8890 38 1
8891 24 1
8892 22 1
8892 38 1
8893 24 1
8894 34 1
8895 4 5
8895 5 22
8895 24 1
8895 38 21
8896 4 2
8896 5 6
8896 38 8
8897 19 1
8898 8 1
8898 21 1
8899 24 6
8900 7 2
8900 8 6
8900 20 1
8901 26 22
8902 21 1
8902 34 1
8903 2 1
8903 24 17
8904 8 1
8905 24 23
8906 2 11
8906 3 21
8906 34 19
8907 24 21
8907 34 1
8908 17 1
8909 18 7
8909 19 5
8909 20 4
8910 18 28
8910 19 24
8910 20 7
8910 24 1
8910 28 5
8911 20 1
8912 4 1
8912 24 13
8913 19 1
8914 28 2
8915 5 1
8916 29 1
8917 4 2
8917 5 5
8917 21 1
8917 38 7
8918 29 1
8919 19 1
8920 10 1
8920 29 1
8921 2 1
8922 24 6
8923 25 1
8923 26 1
8924 5 2
8924 38 7
8925 4 2
8925 5 2
8926 9 4
8926 10 17
8926 11 17
8927 21 1
8928 5 1
8928 29 5
8929 29 1
8930 34 1
8931 7 1
8931 8 1
8932 34 1
8933 34 1
8934 18 1
8934 21 6
8934 22 7
8935 11 1
8935 18 7
8935 19 8
8935 20 1
8936 2 1
8936 3 1
8936 34 3
8937 30 1
8938 24 1
8939 14 1
8940 19 1
8941 18 1
8941 19 1
8941 20 1
8942 2 1
8943 9 5
8943 10 3
8943 11 2
8944 18 5
8944 20 2
8945 29 2
8946 29 4
8947 19 1
8948 3 1
8949 28 1
8949 29 4
8950 3 1
8951 24 1
8951 31 7
8952 18 1
8953 18 4
8953 19 12
8953 20 3
8954 4 3
8954 5 26
8954 9 1
8954 24 1
8954 28 19
8954 29 1
8954 38 22
8955 12 1
8956 18 1
8956 29 19
8956 30 2
8956 38 1
8957 14 1
8958 3 1
8959 24 1
8959 31 1
8960 5 1
8961 5 1
8961 24 5
8961 38 1
8962 8 1
8962 10 2
8962 11 2
8963 18 1
8964 34 1
8965 21 1
8965 26 3
8965 29 1
8965 34 1
8966 21 1
8966 24 5
8967 4 2
8967 5 17
8967 38 9
8968 29 1
8969 24 3
8970 25 1
8970 26 2
8970 29 2
8970 30 1
8971 31 1
8972 12 1
8973 19 1
8974 2 3
8974 34 1
8975 1 1
8975 2 6
8975 3 12
8975 34 14
8975 38 1
8976 11 1
8976 21 1
8976 38 1
8977 11 1
8978 9 1
8979 29 11
8979 30 1
8980 24 2
8981 2 1
8981 3 4
8981 34 9
8982 29 6
8982 38 1
8983 7 5
8983 8 7
8984 2 3
8984 3 9
8984 34 7
8985 29 1
8986 5 1
8986 38 2
8987 19 1
8988 24 4
8988 34 1
8989 2 1
8990 5 6
8990 38 7
8991 3 1
8992 3 1
8993 28 1
8994 15 4
8994 16 2
8994 17 2
8995 5 1
8996 29 9
8997 19 1
8998 4 2
8998 5 13
8998 38 11
8999 24 1
9000 23 1
9000 24 15
9001 3 1
9001 24 1
9001 29 11
9001 30 2
9002 2 6
9002 3 9
9002 7 6
9002 8 5
9002 34 10
9003 34 1
9004 28 2
9005 2 20
9005 3 24
9005 18 1
9005 34 19
9006 7 5
9006 8 13
9006 15 1
9006 20 1
9006 34 1
9007 5 1
9007 24 2
9008 24 1
9008 34 2
9009 4 5
9009 5 13
9009 38 17
9010 4 4
9010 5 24
9010 38 20
9011 24 1
9012 3 1
9013 2 9
9013 3 4
9013 31 1
9013 34 7
9014 34 1
9015 24 10
9016 2 1
9017 2 6
9017 3 11
9017 34 16
9018 11 1
9019 17 1
9020 5 1
9021 26 1
9022 9 1
9023 29 2
9024 29 3
9025 26 2
9025 38 1
9026 18 4
9026 19 7
9026 20 3
9026 29 6
9026 30 1
9027 9 1
9027 10 5
9027 11 1
9028 34 1
9029 24 5
9030 28 1
9031 3 1
9031 21 1
9031 24 16
9032 2 1
9033 24 1
9034 3 1
9034 7 1
9035 5 1
9035 14 1
9036 28 3
9037 3 1
9037 5 5
9037 38 4
9038 2 1
9038 3 5
9038 19 1
9038 34 3
9039 7 1
9039 15 2
9039 17 1
9040 38 1
9041 22 1
9042 2 1
9042 28 2
9043 38 1
9044 29 1
9044 30 1
9044 31 1
9045 12 1
9046 29 1
9047 2 2
9047 3 1
9047 5 2
9047 12 1
9047 14 1
9047 38 2
9048 14 1
9049 20 1
9050 19 1
9051 22 1
9052 24 1
9053 3 1
9054 34 1
9055 5 1
9055 24 1
9055 25 1
9055 26 3
9056 18 5
9056 19 5
9056 34 1
9057 5 1
9058 2 1
9059 10 1
9060 24 20
9061 3 1
9061 8 1
9061 24 1
9061 29 1
9061 38 2
9062 29 1
9063 29 2
9064 10 1
9065 18 3
9065 19 13
9065 20 1
9066 3 2
9066 11 1
9066 31 1
9067 26 1
9068 2 1
9069 26 3
9070 5 1
9070 15 8
9070 16 4
9070 17 5
9071 29 1
9072 26 1
9073 3 1
9073 5 1
9073 7 1
9073 29 1
9073 31 1
9073 34 2
9073 38 1
9074 3 1
9075 4 6
9075 5 21
9075 38 18
9076 28 1
9077 19 1
9078 1 2
9078 2 20
9078 3 39
9078 34 53
9079 12 1
9080 29 1
9080 34 1
9081 2 10
9081 3 21
9081 9 1
9081 19 1
9081 34 14
9082 11 1
9083 18 1
9083 22 1
9084 2 1
9085 34 1
9086 19 1
9087 34 1
9088 8 1
9088 12 1
9088 31 3
9088 38 1
9089 31 3
9090 5 3
9090 38 5
9091 26 2
9091 38 1
9092 28 3
9093 10 1
9094 19 1
9095 12 1
9095 29 1
9096 8 1
9097 2 1
9097 38 1
9098 34 1
9099 19 1
9100 4 1
9100 5 1
9100 18 1
9101 29 1
9102 26 3
9102 29 3
9102 31 2
9102 34 1
9103 29 4
9104 18 13
9104 19 27
9104 20 10
9105 2 1
9105 4 3
9105 5 17
9105 38 10
9106 2 1
9106 29 2
9107 12 7
9108 38 1
9109 34 1
9110 2 1
9110 3 3
9110 34 2
9111 9 1
9112 28 2
9113 25 1
9113 26 1
9114 28 1
9115 12 4
9115 13 1
9115 14 2
9116 24 27
9117 5 1
9118 2 1
9118 26 1
9119 29 1
9120 7 1
9121 3 1
9122 38 1
9123 12 3
9123 14 8
9124 2 1
9125 38 1
9126 3 1
9127 18 1
9128 3 1
9129 18 1
9129 19 4
9130 21 1
9131 21 1
9132 21 9
9132 22 15
9133 21 1
9133 22 7
9134 21 6
9134 22 3
9134 38 1
9135 28 2
9136 15 2
9136 16 3
9137 5 1
9137 31 12
9138 31 1
9139 3 1
9140 5 1
9141 26 3
9142 5 1
9143 2 1
9143 3 1
9144 28 3
9145 3 1
9146 31 3
9147 3 2
9148 18 6
9148 19 7
9148 20 3
9149 1 1
9149 2 10
9149 3 16
9149 34 13
9150 2 8
9150 3 5
9150 34 6
9151 34 1
9152 7 2
9153 15 1
9154 10 1
9154 17 1
9154 24 13
9155 21 10
9155 22 6
9156 21 14
9156 22 14
9156 38 1
9157 22 1
9157 26 1
9158 5 2
9158 38 2
9159 29 1
9160 24 3
9161 18 1
9162 16 1
9163 10 1
9164 22 1
9165 29 1
9166 20 1
9167 18 1
9167 20 1
9167 24 1
9167 29 1
9167 38 1
9168 19 1
9169 24 1
9169 25 1
9169 26 3
9169 31 5
9170 4 1
9170 34 1
9171 38 1
9172 4 2
9172 5 7
9172 38 10
9173 21 2
9174 12 1
9175 5 1
9176 3 1
9177 19 1
9177 28 1
9178 4 1
9179 29 10
9180 4 4
9180 5 30
9180 9 1
9180 28 1
9180 38 45
9181 19 6
9181 20 2
9182 34 1
9183 24 1
9184 29 1
9185 16 1
9186 18 22
9186 19 29
9186 20 10
9187 12 1
9188 5 1
9188 38 4
9189 19 1
9190 9 1
9191 31 1
9192 34 1
9193 10 4
9193 22 1
9194 2 1
9195 34 1
9196 38 1
9197 29 24
9197 30 1
9198 2 1
9198 29 11
9199 10 1
9200 9 1
9201 34 1
9202 12 3
9203 34 1
9204 38 1
9205 38 1
9206 29 12
9206 30 5
9206 34 1
9206 38 1
9207 4 6
9207 5 27
9207 12 1
9207 38 28
9208 3 1
9209 5 2
9210 21 1
9211 24 10
9212 1 1
9212 2 12
9212 3 31
9212 22 1
9212 34 28
9213 8 4
9214 25 1
9215 38 1
9216 5 1
9216 38 1
9217 7 1
9218 19 1
9218 24 1
9218 29 13
9219 31 3
9220 26 5
9221 29 1
9222 12 1
9222 31 1
9223 19 1
9224 24 3
9225 24 1
9226 21 1
9227 15 1
9228 21 4
9228 22 2
9229 21 1
9229 24 2
9230 38 1
9231 21 7
9231 22 13
9232 19 1
9232 25 1
9232 26 1
9233 31 6
9234 3 1
9234 29 1
9235 31 1
9236 7 1
9236 8 2
9237 26 2
9237 29 5
9238 29 1
9239 18 1
9240 19 1
9242 34 1
9243 31 1
9244 11 1
9244 15 1
9244 16 2
9244 17 3
9244 24 1
9245 3 1
9245 5 1
9245 20 1
9246 29 3
9246 30 2
9247 28 1
9247 29 1
9248 12 17
9248 14 10
9249 12 1
9250 18 1
9251 2 1
9252 31 1
9253 19 1
9254 9 8
9254 10 11
9254 11 9
9255 29 1
9256 15 1
9257 15 1
9257 29 28
9257 30 1
9258 29 19
9258 30 1
9259 2 1
9259 26 1
9260 18 21
9260 19 28
9260 20 11
9261 4 1
9261 24 4
9262 29 6
9262 30 1
9263 34 1
9264 3 1
9264 5 1
9264 21 39
9264 22 22
9264 31 1
9265 24 2
9266 21 12
9266 22 4
9267 38 4
9268 18 1
9269 4 1
9269 5 7
9269 38 5
9270 4 1
9270 5 1
9270 38 3
9271 12 14
9271 13 1
9271 14 7
9272 29 1
9273 29 10
9273 30 1
9274 11 1
9274 12 2
9274 18 1
9275 9 4
9275 10 25
9275 11 12
9276 34 1
9277 24 1
9277 26 1
9277 29 6
9277 34 1
9278 8 1
9279 2 8
9279 3 15
9279 34 13
9280 29 2
9281 15 7
9281 16 2
9281 17 5
9282 2 1
9282 26 3
9283 5 1
9283 18 1
9284 5 1
9285 3 1
9286 19 1
9286 29 11
9287 18 1
9287 34 1
9288 34 1
9289 2 12
9289 3 20
9289 34 41
9290 3 1
9291 2 1
9291 8 2
9291 18 1
9292 18 6
9292 19 8
9292 20 2
9293 20 1
9293 24 5
9294 31 1
9295 31 2
9296 24 1
9296 29 1
9297 38 1
9298 24 1
9299 3 1
9300 38 1
9301 4 2
9301 5 13
9301 38 18
9302 18 5
9302 19 2
9302 20 4
9303 22 1
9304 15 3
9304 16 1
9304 17 3
9305 29 1
9305 34 1
9306 24 1
9307 25 2
9307 26 7
9308 10 5
9308 11 1
9309 3 1
9309 24 7
9310 2 1
9310 3 1
9310 28 2
9311 8 1
9311 34 1
9312 2 1
9312 4 1
9313 9 2
9313 10 4
9313 11 1
9314 16 1
9315 7 5
9315 8 15
9315 21 1
9316 38 1
9317 12 1
9317 14 7
9318 18 2
9318 19 7
9318 20 2
9319 12 6
9319 14 1
9320 12 9
9320 14 4
9321 21 1
9321 23 1
9321 24 6
9322 7 11
9322 8 12
9323 29 1
9324 3 1
9324 25 1
9324 26 14
9324 29 1
9325 38 1
9326 9 1
9327 29 2
9327 30 1
9328 21 1
9329 3 1
9329 5 1
9330 2 1
9331 1 1
9331 31 7
9331 38 1
9332 22 1
9333 2 1
9333 19 1
9334 5 1
9334 15 7
9334 16 4
9334 17 5
9335 29 7
9335 30 1
9336 12 1
9336 24 1
9337 38 1
9338 21 8
9338 22 2
9338 26 1
9339 38 1
9340 10 1
9340 15 1
9340 25 2
9340 26 10
9341 3 1
9341 29 3
9341 34 1
9342 29 6
9342 30 2
9342 34 1
9343 31 1
9344 3 1
9344 29 21
9344 30 2
9345 15 1
9346 3 1
9347 21 12
9347 22 11
9348 5 1
9349 19 1
9350 24 1
9350 38 1
9351 7 1
9351 29 35
9351 30 2
9352 31 1
9352 38 1
9353 29 1
9354 11 3
9354 14 5
9354 24 1
9355 5 1
9356 7 5
9356 8 10
9357 19 1
9358 28 2
9359 8 1
9359 29 3
9360 18 1
9360 28 2
9361 5 1
9361 21 1
9362 19 1
9363 3 1
9364 24 1
9365 12 5
9365 14 3
9366 34 1
9367 24 1
9368 24 12
9368 31 1
9369 34 1
9370 24 4
9371 24 1
9372 8 1
9373 12 6
9373 14 6
9373 34 1
9374 26 1
9375 5 1
9375 31 7
9376 26 2
9377 21 15
9377 22 12
9378 25 1
9378 26 1
9379 24 1
9380 19 1
9380 24 24
9381 34 1
9382 31 1
9383 3 1
9383 4 1
9383 5 10
9383 38 11
9384 4 6
9384 5 33
9384 38 21
9385 34 1
9386 10 2
9386 11 2
9387 2 1
9387 3 1
9387 18 1
9387 29 1
9387 34 2
9388 3 1
9388 34 1
9389 1 1
9389 2 14
9389 3 14
9389 34 23
9390 24 1
9391 12 33
9391 14 15
9392 31 11
9393 2 1
9394 2 1
9394 34 2
9395 19 1
9396 2 1
9397 19 1
9398 24 10
9399 34 1
9400 34 1
9401 31 1
9402 20 1
9403 4 1
9403 5 1
9403 18 2
9403 19 3
9403 20 2
9404 38 1
9405 3 1
9406 4 1
9407 24 6
9407 31 1
9408 23 1
9409 12 4
9409 14 4
9410 3 1
9410 24 8
9411 21 1
9412 15 1
9412 38 1
9413 28 3
9413 29 10
9413 30 1
9413 31 1
9414 5 4
9414 15 1
9414 22 1
9414 38 5
9415 31 4
9416 5 1
9416 18 1
9416 19 3
9417 26 2
9418 3 1
9419 2 1
9419 10 1
9420 34 1
9421 15 3
9421 17 1
9422 3 1
9422 19 1
9423 29 1
9424 19 1
9424 29 1
9424 30 1
9425 12 6
9425 14 4
9425 18 1
9425 19 1
9426 21 8
9426 22 4
9427 12 1
9428 18 3
9428 19 3
9428 20 1
9429 7 1
9430 24 1
9431 29 5
9432 24 1
9433 29 10
9433 30 1
9434 29 6
9434 38 1
9435 18 4
9435 19 5
9435 20 4
9436 2 1
9437 7 1
9437 8 1
9437 21 1
9438 31 1
9439 15 11
9439 16 3
9439 17 5
9440 24 18
9440 34 1
9441 34 1
9442 9 1
9442 14 1
9443 15 1
9443 38 1
9444 26 1
9445 4 4
9445 5 10
9445 12 1
9445 29 11
9445 30 1
9445 38 17
9446 2 3
9446 3 2
9446 5 2
9446 8 1
9446 12 1
9446 21 1
9446 24 2
9447 11 1
9447 17 1
9447 38 1
9448 2 1
9448 5 1
9449 29 2
9450 29 1
9451 10 1
9452 5 1
9452 19 5
9452 20 3
9453 3 1
9453 4 1
9453 8 1
9453 22 1
9453 34 1
9454 22 1
9455 20 1
9456 38 1
9457 3 1
9457 5 1
9457 20 1
9457 24 7
9458 15 4
9458 16 2
9458 17 3
9458 19 1
9459 14 1
9460 2 7
9460 3 22
9460 34 31
9461 5 1
9461 31 6
9462 31 1
9463 3 1
9464 5 1
9464 18 2
9464 26 1
9464 29 1
9464 34 3
9465 28 1
9466 34 1
9467 34 1
9468 2 1
9469 5 1
9470 29 10
9470 30 2
9471 19 1
9472 5 1
9472 28 3
9473 23 1
9473 24 8
9474 14 1
9475 9 1
9476 1 1
9476 2 12
9476 3 35
9476 34 33
9477 29 1
9477 30 2
9478 24 1
9479 2 6
9479 3 14
9479 34 16
9480 31 21
9481 4 1
9481 5 9
9481 38 8
9482 1 1
9482 2 6
9482 3 2
9482 34 7
9483 7 1
9484 15 4
9484 16 3
9484 17 2
9485 18 27
9485 19 43
9485 20 8
9486 19 1
9487 2 1
9487 14 1
9488 21 2
9489 21 15
9489 22 6
9490 2 2
9490 21 1
9490 34 2
9491 2 1
9492 31 20
9493 4 3
9493 5 7
9493 38 14
9494 18 20
9494 19 28
9494 20 16
9494 34 1
9495 31 1
9496 2 3
9496 3 5
9496 29 1
9496 34 11
9497 2 1
9498 2 22
9498 3 19
9498 4 3
9498 5 26
9498 15 1
9498 21 1
9498 34 27
9498 38 21
9499 34 1
9500 29 1
9501 5 1
9502 38 1
9503 5 1
9504 21 1
9505 18 1
9506 22 1
9507 28 3
9508 2 1
9508 12 1
9508 24 6
9508 29 1
9509 38 1
9510 12 1
9511 21 18
9511 22 9
9512 5 1
9513 3 1
9513 34 1
9514 12 15
9514 14 7
9515 2 5
9515 3 1
9515 34 9
9516 24 1
9516 38 1
9517 23 1
9518 9 1
9519 5 7
9519 38 11
9520 24 1
9521 29 1
9522 18 1
9523 31 9
9524 3 2
9525 3 1
9525 31 14
9526 18 1
9527 24 1
9528 3 2
9528 34 3
9529 29 1
9530 14 1
9531 22 1
9531 31 6
9532 2 1
9533 30 1
9534 5 1
9534 26 3
9535 24 5
9536 24 5
9536 25 1
9537 31 1
9538 31 1
9539 31 5
9540 26 6
9541 5 1
9542 18 1
9542 29 18
9543 24 1
9544 5 1
9545 29 5
9546 12 7
9546 14 1
9546 34 1
9547 24 1
9548 3 1
9549 2 1
9550 2 1
9551 19 1
9552 11 2
9553 3 1
9553 14 1
9553 18 9
9553 19 14
9553 20 1
9553 38 1
9554 3 1
9555 29 2
9556 5 1
9557 18 2
9557 22 1
9557 26 3
9558 2 5
9558 3 13
9558 34 5
9559 4 3
9559 5 23
9559 19 1
9559 29 9
9559 38 31
9560 29 1
9561 34 1
9562 25 1
9562 26 17
9563 5 1
9564 4 3
9564 5 20
9564 38 21
9565 29 1
9566 5 1
9566 34 1
9567 7 1
9568 10 1
9569 10 2
9569 11 3
9570 25 1
9570 26 4
9571 18 1
9572 19 1
9573 29 14
9573 30 1
9574 18 81
9574 19 126
9574 20 22
9575 31 2
9576 19 1
9577 17 1
9577 26 2
9578 11 1
9579 4 1
9579 5 13
9579 15 3
9579 38 22
9580 18 6
9580 19 12
9580 20 7
9581 28 4
9582 38 1
9583 29 1
9584 19 1
9585 2 1
9586 38 1
9587 8 1
9588 24 1
9589 3 2
9590 8 1
9591 8 1
9591 14 1
9592 10 1
9593 2 1
9593 28 5
9593 34 1
9594 4 1
9595 5 1
9595 11 1
9595 17 1
9595 18 1
9595 19 1
9595 21 1
9595 24 2
9595 34 2
9596 3 1
9597 20 1
9598 21 18
9598 22 15
9599 19 1
9599 26 1
9600 4 9
9600 5 43
9600 11 1
9600 38 64
9601 38 1
9602 38 2
9603 24 3
9604 26 3
9604 29 7
9604 30 1
9605 38 1
9606 38 1
9607 31 2
9608 22 1
9609 2 1
9609 22 1
9609 38 1
9610 38 1
9611 15 1
9612 5 1
9613 7 1
9613 31 9
9613 34 1
9614 1 1
9615 3 1
9616 21 1
9617 26 1
9618 23 1
9618 24 17
9618 29 2
9619 7 1
9619 18 1
9619 19 5
9619 20 4
9620 34 1
9621 34 1
9622 29 1
9623 8 1
9624 15 12
9624 16 5
9624 17 9
9625 18 7
9625 19 18
9625 20 4
9626 21 4
9626 22 5
9626 34 2
9627 28 12
9627 31 8
9628 15 1
9628 16 2
9629 2 1
9629 3 1
9629 18 26
9629 19 22
9629 20 11
9630 9 1
9630 12 1
9631 21 1
9632 18 1
9632 19 2
9632 24 1
9632 38 1
9633 24 1
9633 26 1
9633 34 1
9634 31 1
9635 2 1
9636 5 2
9636 38 3
9637 2 10
9637 3 11
9637 34 21
9638 2 7
9638 3 8
9638 29 1
9638 34 5
9639 7 3
9639 8 2
9640 38 2
9641 18 1
9642 38 1
9643 26 1
9644 5 1
9644 38 6
9645 4 1
9645 5 3
9645 38 2
9646 21 1
9647 3 1
9648 38 1
9649 2 1
9650 31 12
9651 3 1
9651 10 1
9651 11 2
9651 21 1
9651 34 1
9652 29 1
9653 21 1
9653 22 1
9654 24 9
9655 3 1
9655 22 1
9656 2 3
9656 3 2
9656 10 1
9656 34 5
9657 31 1
9658 12 1
9659 1 1
9659 3 1
9660 3 1
9661 19 1
9662 18 2
9662 19 2
9663 19 1
9664 15 1
9664 16 1
9664 17 1
9665 18 1
9666 19 1
9666 29 1
9667 3 1
9667 9 1
9667 10 5
9667 11 2
9668 18 1
9669 3 1
9669 38 1
9670 26 1
9671 1 3
9671 2 16
9671 3 47
9671 34 42
9672 24 1
9673 8 1
9674 5 1
9674 18 1
9675 2 4
9675 3 10
9675 34 10
9676 17 1
9677 15 14
9677 16 8
9677 17 3
9677 18 9
9677 19 11
9677 20 4
9678 28 4
9679 18 37
9679 19 100
9679 20 4
9680 3 1
9680 29 11
9681 28 1
9682 19 1
9683 2 2
9684 12 1
9685 24 1
9685 34 1
9686 12 2
9686 14 4
9687 2 11
9687 3 18
9687 24 1
9687 34 31
9688 20 1
9689 28 2
9689 29 1
9690 19 2
9691 34 1
9692 24 8
9692 29 1
9693 38 1
9694 29 4
9694 30 1
9695 19 1
9696 29 1
9697 3 1
9698 5 1
9698 29 13
9698 38 1
9699 22 1
9700 18 1
9700 21 1
9700 22 3
9701 24 1
9702 38 1
9703 21 7
9703 22 6
9704 11 1
9704 31 2
9705 34 2
9706 15 1
9706 38 1
9707 2 1
9707 34 1
9708 5 1
9709 34 1
9710 3 3
9710 34 1
9711 19 1
9712 20 1
9712 31 7
9713 26 2
9713 28 3
9714 5 1
9715 21 1
9716 7 3
9716 8 9
9717 18 1
9717 29 1
9718 14 1
9719 21 31
9719 22 18
9720 4 1
9720 5 7
9720 38 10
9721 3 1
9722 1 1
9722 2 1
9722 3 1
9722 29 2
9722 34 2
9723 29 2
9724 24 12
9725 3 3
9725 34 1
9726 4 1
9726 5 8
9726 38 6
9727 10 1
9728 29 1
9729 3 1
9730 3 1
9731 34 1
9732 7 3
9732 8 4
9732 21 1
9732 38 1
9733 17 1
9733 38 1
9734 38 1
9735 24 1
9735 26 5
9736 3 1
9737 29 10
9737 30 1
9738 12 38
9738 13 2
9738 14 39
9738 24 1
9738 34 1
9739 15 1
9739 21 6
9739 22 5
9739 29 1
9740 2 15
9740 3 54
9740 7 1
9740 29 1
9740 34 33
9741 3 1
9741 24 1
9742 3 1
9743 1 1
9743 2 19
9743 3 33
9743 20 1
9743 34 41
9744 3 1
9744 12 1
9744 18 24
9744 19 44
9744 20 19
9745 34 1
9746 29 1
9747 12 1
9747 31 12
9748 7 2
9748 8 8
9748 18 1
9749 29 2
9750 25 1
9751 8 1
9752 38 1
9753 5 2
9754 12 1
9755 25 1
9756 1 1
9756 2 12
9756 3 23
9756 34 31
9757 3 1
9758 31 4
9759 4 1
9759 5 30
9759 38 22
9760 21 1
9760 22 4
9760 34 1
9761 24 1
9762 24 27
9763 38 1
9764 3 1
9764 20 1
9764 26 1
9765 31 4
9765 34 1
9766 34 1
9767 24 2
9768 29 8
9768 30 3
9769 5 1
9769 12 1
9769 34 2
9769 38 1
9770 38 1
9771 26 1
9772 18 1
9773 1 1
9773 2 11
9773 3 9
9773 25 1
9773 26 6
9773 34 16
9774 8 1
9775 5 2
9776 38 1
9777 24 1
9778 24 1
9779 14 1
9780 14 1
9781 29 1
9782 22 2
9782 24 2
9783 21 8
9783 22 4
9783 34 1
9784 14 2
9784 38 1
9785 2 1
9785 20 1
9785 22 1
9785 29 1
9786 24 6
9787 31 2
9788 28 6
9789 18 17
9789 19 31
9789 20 21
9789 34 1
9790 3 1
9791 5 4
9791 21 13
9791 22 7
9791 38 3
9792 25 1
9792 26 7
9793 29 11
9793 30 1
9794 1 1
9794 5 4
9794 28 3
9794 38 2
9795 28 1
9796 15 1
9797 2 1
9797 10 1
9797 16 1
9797 21 1
9797 34 1
9798 18 1
9798 20 1
9798 26 6
9798 38 1
9799 12 13
9799 14 12
9800 5 1
9801 24 2
9802 7 1
9802 8 1
9802 29 1
9803 12 11
9803 14 8
9803 34 1
9804 28 1
9804 34 1
9805 12 10
9805 14 4
9806 28 10
9807 2 1
9808 16 1
9808 31 16
9809 31 8
9810 21 1
9811 34 1
9812 10 2
9813 24 3
9813 31 13
9814 19 1
9814 31 1
9815 28 5
9816 31 13
9817 24 12
9818 7 1
9819 29 4
9819 30 1
9820 19 1
9821 14 1
9821 24 1
9822 29 7
9822 30 1
9823 3 1
9823 24 6
9824 4 1
9825 24 7
9825 38 1
9826 2 7
9826 3 2
9826 29 2
9826 34 9
9827 19 1
9828 2 3
9828 3 2
9828 34 2
9829 2 1
9830 22 2
9831 26 8
9832 3 1
9832 14 1
9832 29 2
9832 34 1
9833 18 10
9833 19 30
9833 20 9
9834 4 2
9834 5 3
9834 18 1
9834 19 3
9834 20 1
9834 38 6
9835 29 1
9835 30 1
9835 34 1
9836 29 5
9837 10 1
9838 26 1
9839 31 1
9840 21 1
9841 7 1
9842 24 1
9843 3 1
9843 10 1
9844 1 1
9844 2 6
9844 3 5
9844 34 9
9845 4 8
9845 5 46
9845 38 44
9846 5 1
9846 31 6
9847 4 2
9847 5 13
9847 38 11
9848 19 1
9849 31 1
9850 3 1
9851 21 1
9852 19 1
9852 31 6
9852 33 1
9853 24 1
9854 29 1
9855 14 1
9856 12 2
9856 14 2
9857 10 1
9858 21 8
9858 22 9
9858 34 1
9859 24 12
9860 29 1
9861 38 1
9862 26 7
9863 19 1
9864 12 1
9865 21 5
9865 22 2
9866 7 1
9866 8 1
9866 18 2
9866 20 1
9867 24 5
9868 9 19
9868 10 38
9868 11 15
9868 38 1
9869 19 1
9869 24 18
9870 2 9
9870 3 6
9870 19 1
9870 24 1
9870 31 4
9870 34 15
9871 26 1
9871 28 1
9872 8 2
9873 11 1
9874 3 1
9874 5 1
9875 34 1
9876 15 1
9876 16 1
9877 16 1
9877 18 2
9878 34 1
9879 4 4
9879 5 37
9879 12 1
9879 34 1
9879 38 27
9880 9 1
9881 38 1
9882 34 1
9883 5 1
9883 24 19
9884 10 1
9885 29 26
9885 30 5
9886 12 3
9886 21 5
9886 22 3
9887 18 1
9888 18 1
9889 29 7
9889 30 1
9890 3 1
9890 29 15
9890 30 1
9891 22 1
9892 31 2
9893 34 1
9894 5 1
9895 12 1
9895 21 2
9896 21 1
9897 21 3
9897 22 1
9898 3 1
9898 24 2
9899 29 1
9900 14 1
9901 21 7
9901 22 5
9902 11 1
9902 28 2
9903 38 1
9904 34 1
9905 26 4
9905 29 4
9906 24 6
9907 29 32
9907 30 1
9908 3 1
9908 7 1
9908 34 1
9909 3 1
9910 20 1
9911 5 1
9912 14 1
9912 24 1
9912 38 2
9913 18 1
9914 29 1
9915 8 1
9916 12 1
9916 14 1
9917 10 1
9917 26 1
9918 22 1
9919 28 1
9920 24 1
9921 4 2
9921 5 5
9921 21 6
9921 22 3
9921 38 7
9922 18 1
9923 19 1
9924 38 1
9925 24 1
9926 28 3
9927 7 4
9927 8 1
9928 8 1
9929 31 7
9929 38 1
9930 3 1
9930 15 1
9930 31 6
9931 14 1
9931 18 1
9931 38 1
9932 21 1
9933 29 8
9934 9 1
9934 10 1
9934 17 1
9935 34 1
9936 9 1
9937 2 1
9938 5 1
9939 2 1
9940 12 17
9940 14 4
9940 19 1
9941 26 3
9942 2 2
9942 22 1
9942 28 2
9943 8 1
9944 3 1
9944 34 1
9945 21 1
9946 3 1
9947 1 1
9947 2 12
9947 3 11
9947 34 19
9948 5 1
9948 10 1
9948 17 1
9949 29 1
9950 26 2
9951 34 1
9952 10 1
9953 31 12
9954 2 1
9955 24 1
9956 38 1
9957 34 1
9958 9 14
9958 10 35
9958 11 24
9959 10 1
9960 31 20
9961 29 14
9961 30 2
9961 34 2
9962 28 1
9963 24 1
9964 29 2
9965 29 1
9966 29 2
9967 19 1
9968 34 1
9969 24 8
9970 22 1
9971 26 2
9972 38 1
9973 12 1
9973 15 1
9973 29 1
9974 9 1
9974 10 2
9974 11 6
9974 12 1
9975 26 1
9975 29 10
9975 30 3
9975 31 1
9977 9 4
9977 10 4
9977 11 4
9978 1 1
9979 24 13
9980 21 1
9981 24 1
9982 19 1
9983 15 1
9983 18 1
9984 3 5
9984 21 7
9984 22 6
9984 24 1
9984 34 7
9985 5 1
9986 10 1
9987 3 1
9988 34 1
9989 18 1
9990 3 1
9991 5 1
9991 12 7
9991 14 5
9992 9 4
9992 10 3
9992 11 3
9992 19 1
9992 21 1
9992 22 1
9993 26 2
9994 21 1
9995 34 1
9996 10 1
9997 2 1
9998 23 1
9998 24 14
9999 29 6
9999 31 1
10000 24 4
10001 21 4
10001 22 3
10002 5 12
10002 38 14
10003 31 1
10004 34 1
10005 12 4
10005 14 2
10005 19 1
10006 15 2
10007 29 2
10008 4 1
10008 5 12
10008 38 15
10009 5 1
10009 29 4
10010 2 4
10010 3 10
10010 34 16
10010 38 1
10011 19 1
10012 29 8
10013 7 1
10014 14 3
10014 38 1
10015 31 1
10016 4 1
10016 5 3
10016 24 1
10016 38 15
10017 29 1
10018 24 1
10019 19 1
10020 1 1
10020 2 3
10020 3 11
10020 34 9
10021 24 12
10022 8 1
10023 24 1
10024 9 1
10025 28 1
10026 24 1
10026 29 1
10026 31 1
10027 34 1
10028 26 1
10029 2 1
10029 34 1
10030 18 1
10031 2 2
10032 18 5
10032 19 9
10032 34 1
10033 3 1
10034 2 3
10034 3 3
10034 34 7
10035 3 1
10036 28 9
10037 20 1
10038 26 1
10039 38 1
10040 2 1
10040 24 12
10041 4 1
10041 5 22
10041 38 26
10042 29 30
10042 30 1
10042 38 1
10043 12 1
10044 18 10
10044 19 16
10044 20 2
10045 10 1
10046 5 1
10046 9 1
10046 31 14
10046 32 1
10047 21 1
10048 34 1
10049 24 1
10050 7 1
10050 18 1
10051 18 1
10051 21 5
10051 22 3
10051 38 1
10052 3 1
10053 4 2
10053 5 11
10053 24 1
10053 38 19
10054 24 1
10055 11 1
10056 4 1
10056 5 1
10057 4 2
10058 3 1
10059 24 2
10059 26 2
10060 28 1
10061 5 1
10062 28 5
10063 24 18
10064 18 18
10064 19 18
10064 20 6
10065 28 1
10066 19 1
10066 20 1
10067 5 1
10068 9 10
10068 10 18
10068 11 17
10069 9 1
10070 31 1
10071 12 1
10071 14 1
10071 21 7
10071 22 8
10072 38 1
10073 10 1
10073 31 1
10074 7 4
10074 8 1
10074 18 1
10075 29 2
10076 12 1
10076 15 4
10076 16 6
10076 17 5
10076 22 1
10076 24 1
10077 12 29
10077 13 1
10077 14 21
10078 3 2
10078 4 1
10078 34 1
10079 29 11
10079 30 1
10080 10 1
10081 19 1
10082 21 10
10082 22 9
10083 26 1
10083 31 22
10084 14 1
10085 24 1
10086 12 5
10086 14 4
10087 38 1
10088 24 9
10089 2 1
10089 21 19
10089 22 9
10090 24 18
10090 38 1
10091 34 2
10092 26 1
10093 22 1
10094 34 1
10095 5 1
10095 16 1
10095 28 4
10096 22 1
10097 2 1
10098 26 1
10099 2 1
10099 3 2
10099 5 1
10099 7 1
10099 14 1
10099 15 1
10099 20 1
10099 34 2
10099 38 1
10100 16 1
10101 2 1
10102 15 2
10102 16 1
10102 17 1
10103 29 5
10104 23 1
10104 24 26
10105 29 1
10106 19 2
10107 12 1
10107 14 1
10108 29 1
10109 20 1
10110 22 1
10111 19 1
10112 9 13
10112 10 20
10112 11 11
10113 4 2
10113 5 30
10113 7 1
10113 18 1
10113 38 25
10114 29 1
10115 3 1
10115 24 2
10116 2 1
10116 3 1
10116 34 5
10117 3 1
10117 18 2
10117 19 1
10117 20 1
10118 2 7
10118 3 12
10118 34 19
10119 14 1
10120 3 1
10120 5 1
10120 21 1
10121 15 1
10122 28 7
10123 5 1
10123 38 2
10124 4 5
10124 5 16
10124 17 1
10124 24 1
10124 38 18
10125 24 1
10126 1 2
10126 2 19
10126 3 22
10126 4 1
10126 34 26
10126 38 1
10127 3 1
10127 9 2
10127 10 1
10127 11 3
10127 29 1
10128 3 1
10129 21 1
10129 31 14
10130 34 1
10131 19 1
10132 29 12
10132 30 1
10133 9 1
10133 10 3
10134 5 1
10134 15 1
10134 29 1
10135 34 1
10136 1 1
10136 2 14
10136 3 23
10136 34 12
10137 24 2
10138 28 2
10139 18 1
10140 14 1
10141 24 4
10142 16 1
10143 34 1
10144 21 3
10144 22 1
10144 34 1
10145 34 1
10146 19 1
10147 26 1
10148 34 1
10149 2 2
10149 3 3
10149 17 1
10150 2 3
10150 3 3
10150 34 1
10151 18 23
10151 19 30
10151 20 12
10151 21 63
10151 22 26
10152 34 2
10153 19 1
10154 15 1
10155 18 1
10155 19 3
10156 28 1
10157 31 4
10157 34 1
10158 19 1
10159 21 1
10160 24 4
10161 7 1
10161 8 1
10162 2 1
10163 10 2
10163 18 2
10163 24 3
10164 16 1
10165 31 1
10166 3 1
10166 25 2
10166 26 7
10166 31 1
10167 18 1
10168 24 1
10169 38 2
10170 24 11
10170 34 1
10171 26 1
10172 21 9
10172 22 11
10173 12 9
10173 14 6
10173 19 1
10173 29 2
10173 31 1
10174 5 1
10175 10 1
10176 26 1
10176 38 1
10177 8 1
10177 22 1
10178 31 1
10179 7 1
10180 1 2
10180 2 13
10180 3 7
10180 34 12
10181 25 1
10182 4 6
10182 5 15
10182 17 1
10182 38 13
10183 5 1
10184 29 1
10185 3 1
10186 24 1
10187 31 1
10188 22 1
10188 29 10
10189 5 1
10190 5 6
10190 38 5
10191 18 1
10192 4 3
10192 5 15
10192 18 1
10192 38 18
10193 17 1
10194 12 1
10194 34 1
10195 15 1
10195 16 1
10196 26 1
10197 31 1
10198 4 1
10199 12 8
10199 13 1
10199 14 7
10200 12 1
10201 3 1
10202 31 2
10203 12 1
10204 2 5
10204 3 6
10204 31 4
10204 34 7
10205 3 1
10205 16 1
10205 29 5
10206 15 1
10206 16 2
10206 29 1
10206 34 1
10207 34 1
10208 14 1
10209 2 5
10209 3 3
10209 31 2
10209 34 4
10210 24 6
10211 10 1
10212 10 1
10213 38 1
10214 12 2
10214 14 2
10215 18 1
10215 19 1
10216 10 2
10216 12 2
10217 5 1
10217 19 1
10218 17 1
10218 22 1
10218 29 1
10219 18 1
10220 9 1
10220 15 1
10221 2 4
10221 3 5
10221 34 2
10222 17 1
10222 24 1
10222 29 2
10223 34 1
10224 3 2
10224 15 1
10224 31 1
10225 2 1
10226 18 2
10226 38 1
10227 29 8
10227 30 1
10228 22 1
10228 24 15
10229 28 1
10230 2 1
10231 19 1
10232 38 1
10233 9 3
10233 10 7
10233 11 4
10233 31 1
10234 2 4
10234 3 3
10234 34 4
10235 28 2
10235 31 1
10236 20 1
10237 34 1
10238 4 7
10238 5 75
10238 29 1
10238 38 91
10239 29 1
10240 19 1
10240 31 4
10241 12 1
10242 2 1
10242 18 11
10242 19 12
10242 34 1
10243 29 23
10243 30 1
10244 15 1
10244 16 1
10244 17 1
10245 34 1
10246 7 1
10246 8 3
10246 24 1
10247 12 1
10248 29 1
10249 8 1
10250 5 3
10250 38 6
10251 31 5
10252 21 1
10253 24 22
10253 25 2
10253 26 4
10254 3 1
10255 1 1
10255 2 2
10255 3 3
10255 34 3
10256 3 1
10256 24 1
10256 26 4
10256 31 5
10256 34 1
10257 1 1
10257 2 10
10257 3 21
10257 34 26
10258 24 1
10259 3 1
10259 18 16
10259 19 23
10259 20 9
10260 22 1
10261 5 1
10262 4 2
10262 24 2
10263 10 2
10263 11 2
10264 31 40
10264 34 1
10265 28 1
10266 26 1
10267 10 2
10268 3 1
10268 4 2
10268 5 4
10268 18 2
10268 19 3
10268 20 2
10268 38 4
10269 4 5
10269 5 28
10269 38 51
10270 9 12
10270 10 20
10270 11 13
10270 31 1
10271 14 1
10272 2 9
10272 3 28
10272 34 27
10273 18 1
10273 34 1
10274 38 1
10275 2 14
10275 3 27
10275 24 7
10275 26 4
10275 34 25
10276 29 1
10277 26 1
10278 34 1
10279 22 1
10280 34 1
10281 12 1
10282 19 1
10283 29 3
10283 34 1
10284 22 1
10285 18 3
10285 19 5
10285 20 6
10286 24 15
10286 29 1
10286 38 1
10287 5 1
10287 21 1
10288 26 1
10289 14 1
10290 21 7
10290 22 5
10291 28 4
10292 16 1
10293 5 2
10293 15 3
10293 16 3
10293 17 1
10293 18 3
10293 19 3
10293 38 4
10294 14 1
10294 22 1
10295 21 31
10295 22 30
10295 29 1
10296 24 1
10297 5 1
10297 38 1
10298 3 1
10299 24 3
10300 5 1
10301 19 1
10302 28 1
10303 34 1
10304 8 1
10305 10 1
10306 2 1
10306 3 1
10306 4 1
10306 7 1
10306 18 2
10306 20 1
10306 21 1
10306 22 1
10306 31 3
10306 34 2
10307 3 1
10308 21 1
10309 1 1
10309 2 16
10309 3 23
10309 7 1
10309 34 25
10310 34 1
10311 24 1
10312 17 1
10313 16 1
10313 21 1
10313 29 1
10313 34 1
10314 22 1
10315 24 1
10316 9 20
10316 10 35
10316 11 23
10317 11 1
10318 2 1
10318 34 1
10319 29 1
10320 3 1
10321 24 4
10322 3 2
10322 34 1
10323 12 1
10324 31 1
10325 5 1
10326 4 1
10326 5 2
10326 19 7
10326 20 3
10326 28 7
10326 38 7
10327 23 1
10327 24 12
10328 28 4
10329 34 1
10330 34 1
10331 28 1
10332 18 1
10333 2 1
10334 22 1
10334 38 2
10335 29 2
10336 22 1
10337 25 1
10337 26 3
10338 24 9
10339 26 2
10340 3 1
10341 2 1
10341 3 6
10341 34 6
10342 2 1
10342 18 18
10342 19 33
10342 20 7
10343 38 1
10344 24 9
10345 25 1
10345 26 16
10346 3 1
10347 12 4
10347 14 2
10348 22 1
10348 34 1
10349 2 1
10349 9 1
10349 21 8
10349 22 2
10350 12 1
10350 14 1
10351 29 1
10352 3 1
10353 1 1
10353 2 1
10353 3 5
10353 13 1
10353 34 4
10354 24 2
10355 25 1
10355 26 24
10356 24 6
10356 28 1
10357 12 1
10358 29 1
10359 21 1
10359 24 13
10360 34 1
10361 9 1
10362 28 1
10363 29 1
10364 2 1
10365 3 1
10366 2 14
10366 3 15
10366 24 4
10366 34 13
10367 5 1
10368 21 1
10369 8 1
10370 29 1
10371 38 1
10372 11 1
10373 29 1
10374 18 8
10374 19 14
10374 20 1
10375 10 1
10376 18 1
10377 2 2
10377 21 1
10377 24 6
10377 26 5
10377 28 1
10377 34 1
10378 15 1
10379 11 1
10379 24 4
10380 4 14
10380 5 54
10380 31 5
10380 38 70
10381 5 1
10381 31 1
10382 10 1
10383 34 1
10384 16 1
10385 5 1
10385 26 1
10386 3 1
10387 4 1
10387 5 28
10387 38 27
10388 28 1
10388 34 1
10389 3 1
10390 23 1
10390 24 14
10391 4 1
10391 24 2
10392 18 1
10392 34 1
10393 18 1
10393 19 1
10393 20 1
10394 3 1
10394 31 10
10395 28 2
10396 29 13
10396 30 1
10396 31 2
10397 38 1
10398 38 1
10399 34 1
10400 34 1
10401 29 1
10402 2 3
10402 3 12
10402 22 1
10402 34 13
10403 19 1
10404 28 3
10405 2 2
10405 3 7
10406 1 1
10406 2 27
10406 3 48
10406 34 64
10407 22 1
10408 18 10
10408 19 15
10408 20 10
10409 31 1
10410 31 5
10411 9 9
10411 10 14
10411 11 11
10412 28 4
10413 29 8
10413 30 2
10414 24 1
10414 28 1
10415 2 1
10416 29 14
10417 2 1
10417 26 5
10418 29 1
10419 2 1
10420 2 1
10420 26 1
10420 28 1
10421 2 1
10422 2 8
10422 3 22
10422 34 23
10423 29 2
10424 29 4
10425 2 2
10426 4 3
10426 5 7
10426 38 2
10427 3 2
10427 34 4
10428 34 1
10429 3 1
10429 4 3
10429 5 8
10429 38 13
10430 18 1
10431 18 1
10431 24 1
10432 7 6
10432 8 4
10433 3 1
10433 29 1
10433 34 1
10434 21 11
10434 22 10
10435 2 1
10435 3 2
10435 28 1
10436 5 1
10437 29 1
10438 5 1
10439 2 4
10439 3 21
10439 29 1
10439 34 35
10440 15 26
10440 16 13
10440 17 13
10440 18 1
10441 34 1
10442 15 1
10443 3 1
10444 38 1
10445 8 1
10445 15 1
10445 38 1
10446 18 1
10447 15 1
10448 4 2
10448 5 4
10448 29 1
10448 38 9
10449 24 1
10450 26 2
10451 5 1
10452 4 1
10452 8 1
10452 12 1
10453 21 21
10453 22 21
10454 31 1
10455 18 1
10456 29 1
10457 31 16
10458 8 1
10458 29 9
10459 18 2
10460 31 2
10461 1 1
10461 2 1
10461 3 5
10461 34 3
10462 24 1
10463 3 1
10463 24 7
10464 18 9
10464 19 6
10464 20 4
10465 3 1
10465 34 1
10465 38 1
10466 30 1
10467 19 1
10467 24 3
10468 5 1
10468 28 1
10469 21 1
10470 24 1
10471 31 1
10472 34 1
10473 29 2
10474 2 3
10474 3 1
10474 24 2
10474 34 1
10475 18 19
10475 19 24
10475 20 10
10476 4 9
10476 5 27
10476 38 31
10477 19 1
10478 2 1
10479 4 1
10479 5 1
10479 38 1
10480 31 3
10481 38 1
10482 16 1
10482 17 2
10483 18 14
10483 19 17
10483 20 5
10484 24 7
10484 34 1
10485 31 2
10486 10 1
10488 21 1
10489 29 28
10489 30 3
10490 38 1
10491 20 1
10492 24 1
10492 25 1
10492 26 3
10493 31 1
10494 1 1
10494 2 10
10494 3 20
10494 8 1
10494 34 27
10495 22 1
10495 28 1
10495 29 8
10495 38 2
10496 18 3
10496 19 3
10497 12 1
10497 14 3
10497 31 1
10498 8 1
10498 23 1
10498 28 1
10499 31 5
10500 18 19
10500 19 36
10500 20 10
10501 34 1
10502 28 1
10503 21 4
10503 22 4
10503 24 1
10504 5 1
10505 34 1
10506 4 1
10506 21 28
10506 22 19
10506 24 1
10507 29 1
10508 28 1
10509 3 1
10510 26 1
10511 2 1
10512 3 1
10513 15 10
10513 16 6
10513 17 3
10514 3 1
10514 25 1
10514 26 4
10515 24 1
10516 2 1
10516 3 26
10516 34 10
10517 29 7
10517 30 2
10518 38 1
10519 26 5
10519 34 1
10520 19 1
10520 28 5
10521 34 1
10522 18 1
10523 34 1
10524 4 1
10524 5 2
10524 7 1
10524 8 3
10524 11 1
10524 34 1
10524 38 2
10525 19 1
10526 1 1
10526 2 2
10526 3 1
10526 34 3
10527 2 7
10527 3 11
10527 34 17
10528 38 1
10529 34 1
10530 20 1
10530 34 1
10531 5 2
10531 38 3
10532 20 1
10533 12 5
10533 14 5
10534 20 1
10535 24 6
10536 29 8
10537 2 11
10537 3 12
10537 34 18
10538 34 1
10539 5 1
10540 3 1
10541 19 1
10542 12 9
10542 14 4
10543 9 1
10543 38 1
10544 21 2
10545 3 1
10546 18 22
10546 19 26
10546 20 5
10546 31 1
10547 7 1
10547 22 1
10548 12 26
10548 14 16
10548 19 30
10548 20 17
10548 38 1
10549 14 1
10550 5 1
10550 24 1
10550 38 1
10551 18 14
10551 19 12
10551 20 13
10551 24 1
10551 38 1
10552 24 1
10553 25 3
10553 26 9
10554 3 1
10554 9 1
10554 11 1
10554 29 1
10554 34 1
10555 12 3
10556 31 1
10557 15 3
10557 29 5
10558 18 21
10558 19 20
10558 20 5
10559 34 1
10560 31 1
10561 21 1
10561 29 23
10561 30 1
10561 31 9
10562 29 1
10563 4 2
10563 5 8
10563 21 1
10563 38 4
10564 18 14
10564 19 21
10564 20 8
10564 29 4
10565 28 3
10566 8 1
10566 11 1
10566 18 1
10567 29 1
10568 12 11
10568 14 11
10569 24 7
10570 15 23
10570 16 9
10570 17 20
10571 3 1
10571 29 7
10572 19 2
10573 21 5
10573 22 2
10574 5 1
10574 7 1
10574 8 2
10575 34 1
10576 2 1
10577 5 1
10578 5 1
10579 34 1
10580 23 1
10580 24 19
10581 10 2
10581 11 2
10581 34 1
10582 12 9
10582 13 2
10582 14 2
10583 34 1
10584 3 1
10585 5 1
10586 18 1
10587 2 3
10587 3 1
10587 34 2
10588 25 3
10588 26 17
10589 10 1
10589 19 1
10589 26 1
10589 31 13
10590 7 1
10590 8 3
10590 12 1
10590 14 2
10591 8 1
10591 34 1
10591 38 1
10592 24 1
10593 24 1
10594 29 1
10595 24 1
10596 25 1
10596 26 5
10596 29 14
10597 18 1
10598 34 1
10599 19 1
10599 31 1
10600 4 1
10600 5 4
10600 38 3
10601 29 1
10601 34 2
10602 15 1
10603 29 1
10604 5 1
10605 29 1
10606 3 1
10607 2 1
10608 2 1
10608 3 1
10608 18 1
10609 24 4
10610 24 8
10611 3 1
10612 17 1
10613 15 1
10614 21 3
10614 22 1
10614 34 1
10615 29 16
10616 12 3
10616 14 1
10617 29 6
10618 24 3
10619 34 1
10620 12 1
10621 26 2
10621 29 1
10622 2 4
10622 3 7
10622 34 2
10623 12 1
10623 14 2
10624 12 1
10625 3 1
10625 15 3
10625 16 2
10626 15 1
10627 12 8
10628 34 1
10629 31 1
10630 2 3
10630 3 4
10630 34 3
10631 2 1
10632 18 1
10633 12 7
10633 14 6
10634 5 1
10634 15 8
10634 16 8
10634 17 3
10634 18 4
10634 19 2
10635 15 15
10635 16 8
10635 17 12
10635 34 1
10636 34 1
10637 18 1
10638 3 1
10639 3 1
10639 11 1
10639 15 10
10639 16 8
10639 17 17
10640 2 1
10641 11 1
10642 1 1
10642 2 27
10642 3 45
10642 34 52
10643 2 1
10644 3 1
10645 30 1
10645 34 1
10646 9 7
10646 10 9
10646 11 5
10647 29 5
10648 34 1
10649 3 1
10649 24 1
10649 29 1
10649 31 1
10650 5 1
10650 7 1
10650 18 1
10651 34 1
10652 21 1
10653 29 2
10654 4 1
10654 5 2
10654 24 7
10654 38 4
10655 24 15
10656 24 1
10657 7 1
10657 8 3
10658 2 1
10659 5 1
10660 12 4
10661 34 1
10662 7 4
10662 8 13
10662 22 1
10663 3 1
10664 38 1
10665 17 1
10666 24 1
10667 16 1
10668 29 17
10668 30 1
10668 34 1
10669 3 1
10670 12 5
10670 14 1
10671 28 1
10672 21 1
10673 22 1
10674 24 1
10675 2 6
10675 3 3
10675 29 1
10675 30 1
10675 34 4
10676 5 1
10676 12 1
10677 10 1
10677 15 5
10677 16 1
10677 17 7
10678 34 1
10679 34 1
10680 29 1
10681 31 3
10682 2 1
10683 22 1
10684 2 5
10684 3 16
10684 34 15
10685 18 1
10686 25 2
10686 26 13
10687 21 1
10688 7 3
10688 8 11
10688 17 1
10689 3 1
10690 21 1
10691 9 11
10691 10 14
10691 11 13
10692 25 1
10692 26 4
10692 31 3
10693 12 1
10694 38 1
10695 19 1
10696 3 1
10697 4 14
10697 5 63
10697 38 79
10698 34 1
10699 15 1
10699 16 1
10700 8 18
10700 9 1
10700 21 4
10700 22 3
10700 29 1
10701 28 12
10702 4 1
10703 3 1
10704 29 10
10704 30 1
10705 19 1
10705 34 1
10706 24 1
10707 1 1
10707 2 40
10707 3 61
10707 28 1
10707 34 64
10708 26 2
10708 29 19
10708 30 2
10709 17 1
10709 24 19
10710 24 1
10710 31 11
10710 34 1
10711 29 5
10712 4 1
10712 20 1
10712 31 10
10713 12 1
10714 34 1
10715 12 1
10715 14 1
10715 21 1
10716 3 2
10716 5 1
10717 34 1
10718 19 1
10719 31 1
10720 9 40
10720 10 58
10720 11 45
10721 24 7
10722 31 10
10723 9 6
10723 10 1
10723 11 3
10724 29 24
10724 30 2
10725 12 1
10726 2 1
10727 21 1
10728 9 2
10728 14 1
10728 31 6
10728 34 1
10729 34 1
10730 3 1
10730 34 1
10731 12 1
10732 5 1
10732 29 1
10733 34 1
10734 29 2
10735 14 1
10735 18 2
10735 19 5
10735 20 2
10735 21 4
10735 22 1
10736 2 1
10736 5 2
10737 8 2
10737 29 5
10737 30 1
10737 31 7
10738 12 4
10738 14 3
10739 2 1
10740 4 3
10740 5 13
10740 38 12
10741 4 2
10741 5 7
10741 38 7
10742 3 1
10742 12 2
10742 14 4
10743 24 1
10744 4 1
10744 31 5
10745 18 1
10746 21 4
10746 22 5
10747 21 6
10747 22 7
10748 12 2
10748 14 3
10749 28 1
10750 21 4
10750 22 10
10751 31 7
10752 12 5
10752 14 8
10753 21 1
10754 9 1
10754 28 3
10755 12 10
10755 13 1
10755 14 7
10756 18 1
10756 28 1
10756 31 1
10757 29 1
10758 24 1
10758 29 1
10759 5 4
10759 15 6
10759 16 9
10759 17 4
10759 38 5
10760 21 19
10760 22 15
10760 38 1
10761 31 3
10762 3 1
10763 29 7
10763 30 2
10763 38 1
10764 9 1
10765 28 12
10765 34 1
10766 3 1
10767 12 20
10767 14 5
10768 26 1
10769 19 1
10769 20 1
10770 1 1
10770 2 26
10770 3 38
10770 15 1
10770 34 55
10771 34 1
10772 3 1
10773 26 2
10774 3 1
10774 31 2
10775 5 1
10775 21 1
10775 22 13
10776 18 1
10776 31 1
10776 34 1
10777 19 2
10778 3 1
10779 24 1
10780 34 1
10781 19 1
10782 7 3
10782 8 11
10783 5 1
10783 18 2
10783 19 2
10784 8 2
10785 5 1
10786 15 1
10786 16 2
10786 17 1
10787 29 1
10788 1 1
10788 2 8
10788 3 30
10788 34 27
10789 26 2
10789 31 1
10790 14 1
10790 29 1
10791 30 1
10792 2 1
10792 19 1
10793 2 1
10794 3 1
10795 19 1
10796 3 1
10797 29 2
10797 31 1
10798 17 1
10798 23 1
10798 38 1
10799 38 1
10800 5 1
10800 31 3
10801 34 1
10802 18 1
10803 19 1
10803 24 13
10803 29 12
10803 30 1
10804 20 1
10805 12 8
10805 14 5
10806 7 1
10806 8 4
10807 18 19
10807 19 17
10807 20 4
10808 38 1
10809 3 1
10809 34 2
10810 24 3
10811 29 11
10812 9 1
10813 2 8
10813 3 27
10813 34 25
10814 31 1
10815 18 1
10815 34 1
10816 24 6
10817 7 8
10817 8 19
10817 24 1
10818 18 1
10819 10 1
10819 11 1
10819 38 1
10820 3 1
10821 34 1
10822 22 1
10823 5 1
10824 12 3
10824 14 1
10825 15 2
10825 16 2
10825 17 2
10826 21 1
10827 31 1
10828 10 1
10829 19 1
10830 18 22
10830 19 23
10830 20 12
10831 3 1
10832 18 1
10833 9 4
10833 10 4
10833 11 8
10834 2 1
10834 4 6
10834 5 13
10834 38 18
10835 24 1
10836 3 1
10837 10 2
10838 17 1
10839 3 1
10839 31 5
10839 34 2
10840 5 1
10840 7 12
10840 8 15
10841 29 1
10842 2 1
10842 7 2
10842 8 1
10843 2 13
10843 3 15
10843 18 1
10843 24 6
10843 33 1
10843 34 20
10844 38 1
10845 4 1
10845 5 12
10845 38 7
10846 2 7
10846 3 2
10847 4 2
10847 5 9
10847 38 17
10848 26 1
10849 5 1
10850 22 1
10850 29 12
10851 3 1
10851 29 4
10852 29 7
10853 26 4
10854 26 2
10854 31 1
10855 38 1
10856 3 1
10857 9 1
10858 34 1
10859 3 1
10860 4 4
10860 5 16
10860 28 4
10860 38 19
10861 18 1
10861 34 1
10862 2 1
10862 3 2
10862 34 4
10863 15 73
10863 16 58
10863 17 73
10864 2 4
10864 5 1
10864 34 3
10864 38 1
10865 4 7
10865 5 26
10865 38 35
10866 4 1
10867 15 2
10867 16 7
10867 17 6
10868 4 4
10868 5 34
10868 38 18
10869 12 8
10869 13 1
10869 14 8
10870 25 1
10870 26 5
10871 18 4
10871 19 4
10871 20 1
10872 3 1
10873 31 13
10874 2 1
10874 31 7
10874 34 2
10875 14 1
10876 10 1
10876 24 2
10877 24 7
10878 34 1
10879 3 1
10880 29 9
10881 9 1
10882 31 1
10883 28 1
10883 29 1
10884 5 1
10884 7 1
10884 9 1
10884 10 1
10885 25 1
10885 26 6
10886 12 1
10887 5 1
10888 38 1
10889 22 1
10890 24 9
10891 4 1
10892 34 1
10893 3 1
10894 1 3
10894 2 38
10894 3 62
10894 34 67
10895 38 1
10896 4 5
10896 5 17
10896 38 14
10897 8 1
10898 29 9
10899 28 3
10899 29 6
10899 31 1
10900 5 1
10900 19 1
10900 22 1
10901 22 1
10902 22 1
10902 29 9
10902 30 1
10903 38 1
10904 31 1
10905 3 1
10906 24 1
10907 18 1
10907 21 2
10907 22 1
10907 29 1
10908 3 1
10908 28 2
10909 29 1
10910 4 2
10910 5 19
10910 38 11
10911 29 14
10911 30 1
10912 2 2
10912 3 1
10912 34 1
10913 2 4
10913 3 10
10913 18 1
10913 34 8
10914 8 1
10915 16 1
10916 34 1
10917 2 5
10917 3 3
10917 34 5
10918 12 1
10919 26 1
10920 18 10
10920 19 5
10920 20 2
10921 4 1
10921 29 25
10921 30 1
10921 38 1
10922 18 1
10923 29 1
10924 5 1
10925 22 1
10926 12 1
10927 16 1
10928 28 2
10929 5 2
10929 31 1
10930 38 1
10931 18 1
10932 18 1
10933 5 1
10934 31 43
10935 21 1
10936 18 2
10936 19 3
10937 26 1
10938 2 1
10938 11 1
10939 21 1
10939 29 7
10940 2 1
10941 10 1
10942 34 1
10943 38 1
10944 2 1
10945 1 1
10945 2 29
10945 3 43
10945 34 59
10946 24 1
10946 29 5
10947 12 17
10947 13 1
10947 14 7
10947 24 1
10948 28 1
10949 21 1
10950 3 1
10951 3 1
10951 26 4
10952 19 1
10952 20 1
10952 24 1
10952 28 1
10953 18 1
10954 3 1
10955 2 1
10955 10 1
10956 22 2
10957 28 3
10958 26 1
10959 3 1
10959 18 5
10959 19 2
10959 20 3
10959 29 7
10960 5 1
10961 29 2
10962 24 6
10963 29 5
10964 24 1
10965 29 1
10966 24 39
10967 3 1
10968 12 1
10969 4 1
10970 5 1
10971 31 1
10972 34 2
10973 5 1
10974 29 1
10975 22 1
10976 12 1
10976 18 1
10976 19 1
10976 20 1
10977 4 1
10977 5 6
10977 38 10
10978 12 1
10979 2 1
10980 2 1
10981 8 1
10982 26 1
10983 3 1
10984 2 1
10984 28 1
10985 3 1
10986 4 3
10986 5 15
10986 9 1
10986 38 14
10987 9 1
10988 5 1
10988 12 1
10989 28 3
10989 31 1
10990 19 1
10990 31 8
10991 34 1
10992 3 1
10993 19 1
10993 21 12
10993 22 10
10994 18 1
10994 25 1
10994 26 3
10994 29 1
10995 10 1
10996 28 1
10997 3 1
10998 29 1
10999 19 1
11000 38 2
11001 34 1
11002 5 1
11002 18 1
11002 19 5
11002 20 3
11003 29 2
11004 10 1
11004 18 1
11004 24 1
11005 3 1
11006 24 1
11007 31 3
11008 18 8
11008 19 11
11008 20 6
11009 25 5
11009 26 10
11010 4 1
11010 38 1
11011 29 1
11012 31 1
11013 24 1
11014 5 1
11014 29 1
11014 31 7
11015 2 1
11015 8 2
11015 18 5
11015 19 3
11015 20 6
11016 10 1
11017 2 5
11017 3 12
11017 34 12
11018 3 1
11018 15 1
11018 18 22
11018 19 38
11018 20 8
11018 28 4
11019 3 1
11020 1 1
11020 2 16
11020 3 44
11020 34 39
11021 12 1
11022 38 1
11023 2 3
11023 5 2
11023 18 1
11023 34 1
11023 38 1
11024 21 1
11025 9 1
11026 19 1
11027 2 20
11027 3 33
11027 34 39
11028 2 1
11029 34 1
11030 38 1
11031 5 1
11032 3 1
11032 4 2
11032 5 11
11032 38 28
11033 24 7
11034 8 3
11035 38 1
11036 20 1
11037 29 1
11038 3 1
11038 9 1
11038 15 2
11039 2 1
11039 31 1
11040 10 1
11040 18 3
11040 19 6
11040 20 1
11041 24 1
11042 29 28
11042 30 4
11043 34 1
11044 29 1
11045 34 1
11046 34 1
11047 29 1
11048 2 1
11049 18 1
11050 9 1
11050 10 1
11051 21 11
11051 22 5
11052 12 1
11052 29 1
11053 12 4
11054 24 1
11055 31 4
11056 10 2
11057 4 1
11058 24 1
11059 12 1
11059 18 6
11059 19 11
11059 20 5
11060 12 1
11060 24 5
11061 3 1
11062 21 7
11062 22 6
11063 24 1
11064 12 1
11065 3 1
11065 15 2
11065 16 3
11065 17 3
11065 18 1
11066 25 1
11066 26 1
11066 34 1
11067 31 1
11068 24 4
11069 2 14
11069 3 26
11069 34 17
11070 5 1
11070 21 1
11070 34 1
11071 28 1
11072 29 3
11073 2 1
11074 2 1
11075 24 1
11076 19 1
11077 2 1
11078 22 1
11079 19 1
11080 5 1
11081 20 1
11082 14 1
11083 2 4
11083 3 29
11083 18 1
11083 34 45
11084 28 2
11085 12 46
11085 13 2
11085 14 16
11085 18 1
11086 5 1
11086 11 1
11086 38 1
11087 4 3
11087 5 20
11087 14 1
11087 38 31
11088 3 1
11089 9 1
11090 12 1
11091 29 8
11091 30 1
11092 26 1
11093 29 1
11094 22 1
11094 24 7
11094 38 1
11095 3 1
11096 5 1
11097 20 1
11097 29 3
11098 29 1
11099 3 1
11099 24 10
11100 29 1
11101 34 1
11102 2 1
11102 18 1
11102 34 3
11102 38 1
11103 34 1
11104 7 1
11105 2 1
11106 34 1
11107 4 3
11107 5 17
11107 38 12
11108 2 2
11108 3 11
11108 10 1
11108 11 1
11108 34 8
11109 38 1
11110 14 1
11111 9 1
11111 10 2
11111 11 2
11112 34 1
11113 34 1
11114 31 6
11115 3 1
11115 18 1
11115 31 11
11116 24 1
11117 19 1
11118 19 1
11118 34 1
11119 19 1
11120 19 1
11121 3 1
11122 8 1
11122 20 1
11123 25 1
11123 26 3
11124 21 4
11124 22 2
11124 34 1
11125 3 1
11126 31 5
11127 12 3
11128 24 2
11129 28 4
11130 18 1
11131 3 1
11131 18 6
11131 19 2
11131 20 1
11131 21 1
11131 38 1
11132 21 1
11133 31 5
11134 3 1
11134 21 28
11134 22 18
11135 3 1
11136 3 1
11136 28 2
11136 31 6
11137 24 1
11138 12 29
11138 14 9
11138 18 15
11138 19 20
11138 20 4
11139 38 1
11140 18 2
11140 19 3
11141 24 1
11141 28 3
11142 18 4
11142 20 2
11143 18 11
11143 19 8
11143 20 2
11144 24 1
11145 38 1
11146 34 1
11147 21 6
11147 22 1
11148 15 3
11148 17 1
11149 3 1
11150 24 1
11150 28 2
11151 1 1
11151 2 11
11151 3 21
11151 34 25
11152 4 1
11152 38 1
11153 18 8
11153 19 5
11153 20 3
11153 21 2
11153 22 1
11154 5 1
11155 23 1
11155 24 10
11156 3 1
11157 16 1
11158 23 1
11158 24 13
11159 21 3
11159 22 4
11159 29 1
11159 34 1
11160 34 1
11161 2 1
11161 14 1
11161 34 1
11162 8 1
11163 29 1
11164 2 1
11165 31 1
11166 2 10
11166 3 29
11166 22 1
11166 34 23
11167 38 1
11168 2 9
11168 3 5
11168 19 1
11168 34 16
11169 10 1
11169 34 1
11170 2 1
11171 22 1
11172 29 1
11173 14 1
11174 5 1
11174 12 2
11174 18 1
11174 23 1
11174 24 2
11174 31 3
11174 34 3
11174 38 2
11175 3 1
11176 24 1
11177 2 1
11178 1 3
11178 2 49
11178 3 69
11178 34 73
11179 24 1
11180 15 9
11180 16 8
11180 17 6
11180 22 1
11181 19 1
11182 19 1
11183 29 1
11183 30 1
11184 18 1
11185 31 1
11186 10 1
11187 20 1
11187 24 1
11188 2 1
11188 4 2
11188 5 2
11188 38 3
11189 24 10
11190 30 1
11191 24 1
11191 28 1
11192 12 1
11192 14 1
11193 21 19
11193 22 12
11194 21 2
11194 22 3
11195 3 4
11195 34 5
11196 29 1
11196 30 1
11197 10 1
11198 3 1
11199 26 1
11200 5 1
11200 9 1
11200 28 1
11200 38 1
11201 2 1
11201 3 1
11201 26 1
11201 28 7
11202 18 1
11203 24 16
11204 29 9
11205 30 1
11206 24 2
11207 29 10
11207 30 2
11208 12 17
11208 14 9
11209 34 1
11210 7 1
11211 24 8
11212 5 1
11213 34 1
11214 5 1
11215 38 1
11216 2 3
11216 3 9
11216 34 7
11217 5 1
11217 38 1
11218 3 1
11218 13 1
11219 24 13
11220 19 1
11221 3 1
11221 28 6
11222 5 1
11223 21 1
11223 22 3
11224 5 7
11224 38 4
11225 34 1
11226 29 13
11227 21 1
11227 38 1
11228 34 1
11229 31 1
11230 2 1
11231 12 2
11231 14 2
11232 14 1
11233 3 1
11234 8 1
11235 29 1
11236 34 1
11237 1 2
11237 2 30
11237 3 56
11237 5 3
11237 34 47
11237 38 2
11238 10 1
11239 24 1
11240 2 5
11240 3 5
11240 24 4
11240 31 1
11240 34 1
11241 24 6
11242 24 3
11242 28 1
11243 2 13
11243 3 18
11243 34 26
11244 3 1
11244 34 2
11245 38 1
11246 16 3
11246 17 3
11247 24 1
11248 34 1
11249 15 10
11249 16 5
11249 17 10
11250 29 3
11250 30 1
11251 7 3
11251 8 6
11252 29 7
11252 30 1
11253 3 1
11254 26 1
11255 31 1
11256 3 1
11257 12 9
11257 14 6
11258 29 10
11259 38 2
11260 4 2
11260 5 12
11260 38 18
11261 14 1
11262 29 4
11263 1 1
11263 2 20
11263 3 40
11263 34 67
11264 4 1
11264 38 1
11265 7 8
11265 8 15
11266 34 1
11267 38 1
11268 29 6
11269 2 1
11270 24 3
11271 29 4
11272 24 1
11272 31 3
11273 24 26
11274 2 14
11274 3 33
11274 5 1
11274 18 1
11274 29 1
11274 31 1
11274 34 56
11275 4 1
11275 5 1
11275 38 4
11276 26 2
11276 28 1
11277 34 1
11278 24 1
11279 34 1
11280 3 1
11281 2 1
11281 18 1
11281 19 1
11281 34 1
11282 3 1
11283 1 1
11284 34 1
11285 19 6
11286 18 1
11286 34 2
11287 24 1
11288 3 1
11289 19 1
11290 31 1
11291 1 2
11291 2 18
11291 3 28
11291 34 56
11292 19 1
11293 18 1
11294 31 7
11295 26 8
11296 5 1
11297 29 2
11297 31 1
11298 2 1
11299 29 1
11300 22 1
11300 24 1
11301 2 2
11302 19 1
11303 29 2
11303 34 2
11304 5 1
11304 8 1
11304 34 1
11304 38 1
11305 17 1
11307 29 1
11308 3 1
11309 21 33
11309 22 29
11310 5 2
11310 24 2
11311 3 1
11312 25 1
11312 26 5
11313 3 1
11313 18 8
11313 19 10
11313 20 10
11313 34 1
11314 29 1
11315 2 1
11316 34 1
11317 14 1
11318 2 1
11319 34 1
11320 8 1
11320 19 1
11321 28 3
11322 2 17
11322 3 41
11322 34 48
11323 2 1
11324 24 1
11325 14 1
11326 38 1
11327 24 11
11328 5 1
11329 10 1
11329 19 1
11330 12 1
11331 8 1
11331 28 2
11332 29 1
11333 3 1
11334 7 1
11334 8 3
11335 24 2
11336 26 1
11337 19 1
11338 29 4
11338 34 1
11339 31 1
11339 34 1
11340 13 3
11340 14 4
11340 18 26
11340 19 34
11340 20 7
11340 28 1
11341 18 1
11342 30 1
11342 34 1
11343 31 1
11344 18 1
11345 24 1
11346 29 1
11347 34 1
11348 34 1
11349 2 1
11350 31 5
11351 3 1
11352 38 1
11353 29 1
11354 29 3
11355 19 1
11356 29 2
11356 30 1
11356 31 5
11357 14 1
11358 19 1
11359 2 2
11359 3 2
11359 5 2
11359 9 2
11359 10 1
11359 12 1
11359 14 1
11359 19 2
11359 20 1
11359 24 3
11359 28 1
11359 29 1
11359 34 2
11359 38 2
11360 34 1
11361 11 1
11362 24 5
11363 2 1
11363 3 3
11363 18 4
11363 19 8
11363 20 4
11363 29 5
11363 34 5
11364 25 1
11364 26 2
11365 8 1
11366 2 3
11366 3 11
11366 34 14
11367 29 1
11368 29 2
11369 2 4
11369 34 1
11370 16 1
11371 24 7
11371 38 1
11372 15 1
11373 34 1
11374 2 1
11375 19 1
11376 12 9
11376 13 1
11376 14 2
11377 24 1
11378 34 1
11379 1 3
11379 2 28
11379 3 33
11379 29 10
11379 34 47
11380 34 1
11381 24 1
11382 34 1
11383 18 1
11384 14 1
11385 3 1
11386 24 2
11387 7 3
11387 8 9
11387 30 1
11388 4 10
11388 5 74
11388 20 1
11388 38 61
11389 1 1
11389 2 3
11389 3 12
11389 34 12
11390 8 1
11391 26 1
11392 8 1
11392 31 5
11393 34 1
11394 2 1
11395 18 1
11396 12 1
11396 13 1
11397 2 1
11398 18 1
11398 28 3
11398 38 1
11399 34 1
11399 38 2
11400 24 15
11401 18 14
11401 19 15
11401 20 6
11402 38 1
11403 3 1
11404 18 1
11405 5 1
11405 11 1
11405 19 1
11405 38 1
11406 10 1
11406 29 11
11407 34 1
11408 21 9
11408 22 9
11409 38 1
11410 24 1
11410 29 5
11411 22 1
11412 16 1
11413 29 1
11414 2 1
11414 4 4
11414 5 10
11414 12 2
11414 14 2
11414 21 1
11414 38 15
11415 21 1
11416 18 1
11416 29 1
11417 2 2
11417 3 6
11417 34 5
11418 2 2
11418 3 2
11418 8 1
11418 34 3
11419 23 1
11419 24 3
11420 29 1
11421 29 1
11422 22 1
11423 12 6
11423 14 2
11424 29 2
11425 5 1
11426 24 1
11427 38 1
11428 2 1
11429 24 3
11430 34 1
11431 2 13
11431 3 34
11431 34 60
11432 11 1
11433 10 1
11434 29 1
11435 2 2
11436 18 4
11436 19 3
11436 20 2
11436 31 1
11437 24 11
11438 18 1
11439 25 1
11440 20 1
11441 18 21
11441 19 30
11441 20 9
11442 19 1
11443 34 1
11444 38 1
11445 2 13
11445 3 7
11445 10 1
11445 24 1
11445 29 1
11445 31 14
11445 34 14
11446 5 1
11446 21 1
11446 22 2
11447 12 2
11447 29 1
11448 34 1
11449 18 1
11450 24 1
11451 29 10
11452 29 1
11453 34 1
11454 21 16
11454 22 22
11455 31 1
11456 17 1
11456 24 2
11457 34 1
11458 34 1
11459 1 2
11459 2 15
11459 3 17
11459 24 2
11459 31 2
11459 34 19
11460 24 7
11460 34 1
11461 2 1
11462 1 1
11462 2 6
11462 3 17
11462 14 1
11462 34 19
11463 28 1
11464 22 1
11464 31 3
11465 24 19
11466 34 1
11467 5 1
11468 3 1
11469 18 10
11469 19 14
11469 20 5
11470 18 5
11470 19 12
11470 20 3
11471 7 1
11472 24 6
11473 24 12
11473 26 1
11474 19 1
11475 3 1
11475 24 2
11476 2 1
11476 3 6
11476 24 4
11476 34 8
11477 19 1
11478 26 13
11478 29 15
11478 30 1
11479 26 7
11480 2 5
11480 3 1
11480 26 2
11480 34 2
11481 17 1
11482 4 3
11482 5 18
11482 21 1
11482 22 1
11482 38 8
11483 5 1
11483 24 1
11483 31 3
11484 3 1
11485 3 1
11486 2 2
11486 5 1
11486 10 1
11487 3 1
11488 19 5
11488 20 1
11489 34 1
11490 8 8
11491 14 1
11492 12 8
11492 14 7
11493 2 2
11493 3 1
11493 34 4
11494 3 1
11495 12 1
11495 24 1
11495 25 1
11495 26 5
11496 12 1
11497 1 1
11497 2 25
11497 3 50
11497 34 53
11498 18 26
11498 19 26
11498 20 10
11499 2 1
11500 20 1
11501 19 1
11501 26 1
11502 3 1
11503 26 1
11504 4 13
11504 5 53
11504 38 37
11505 31 1
11506 34 1
11507 21 1
11508 38 1
11509 28 1
11510 34 1
11511 29 1
11512 12 2
11512 14 1
11513 18 17
11513 19 19
11513 20 11
11514 12 1
11514 21 5
11514 22 5
11514 25 1
11515 19 1
11515 31 1
11516 19 17
11516 20 7
11517 29 4
11518 15 5
11518 16 5
11518 17 4
11518 19 2
11519 4 6
11519 5 23
11519 38 29
11520 20 2
11520 34 1
11521 1 1
11521 2 16
11521 3 30
11521 34 32
11522 19 1
11523 12 1
11524 5 1
11525 9 1
11526 3 1
11526 21 4
11526 22 3
11527 29 14
11528 5 1
11529 28 1
11529 31 4
11530 5 1
11530 15 3
11530 16 3
11530 25 1
11530 26 5
11530 29 5
11531 8 1
11532 20 1
11533 3 1
11534 3 1
11534 12 3
11534 14 2
11534 21 6
11534 22 3
11535 12 2
11536 5 1
11537 4 1
11538 14 1
11539 24 3
11540 28 1
11541 24 1
11542 28 7
11543 3 1
11544 14 1
11545 31 3
11546 22 1
11547 26 1
11548 34 1
11549 1 2
11549 2 22
11549 3 38
11549 34 51
11550 3 1
11551 2 6
11551 3 10
11551 34 10
11552 22 1
11553 29 3
11554 10 1
11555 31 2
11556 2 3
11556 3 3
11556 4 4
11556 5 25
11556 29 10
11556 34 2
11556 38 33
11557 28 5
11558 38 1
11559 3 1
11559 4 4
11559 5 16
11559 24 14
11559 38 24
11560 5 1
11561 3 1
11562 2 19
11562 3 28
11562 5 1
11562 34 26
11563 34 1
11564 19 1
11565 31 5
11566 3 1
11567 17 1
11568 1 1
11568 3 1
11568 26 1
11569 8 5
11570 5 1
11571 5 13
11571 15 5
11571 16 5
11571 17 1
11571 19 1
11571 24 1
11571 38 13
11572 26 1
11573 1 1
11573 2 6
11573 3 6
11573 34 3
11574 16 1
11575 22 1
11576 24 1
11577 24 34
11578 24 14
11579 14 1
11580 21 10
11580 22 10
11581 18 2
11581 19 4
11581 20 4
11582 5 1
11583 3 6
11583 34 2
11584 22 1
11585 38 1
11586 29 1
11587 20 1
11588 24 1
11589 18 1
11589 19 2
11589 20 2
11589 28 1
11590 29 1
11591 26 7
11591 38 2
11592 34 1
11593 5 1
11594 2 1
11594 3 2
11594 15 1
11594 18 7
11594 19 6
11594 24 1
11594 26 2
11594 34 7
11595 12 1
11595 24 12
11596 29 8
11597 29 4
11598 38 1
11599 34 1
11600 5 1
11601 38 1
11602 10 1
11602 24 5
11603 10 1
11603 15 1
11603 17 2
11604 3 1
11604 24 1
11604 29 1
11604 34 1
11605 24 1
11606 2 1
11607 5 1
11608 34 1
11609 3 2
11609 9 10
11609 10 28
11609 11 24
11609 24 3
11610 12 1
11611 7 1
11611 8 5
11612 2 8
11612 3 3
11612 12 1
11612 24 6
11612 26 2
11612 34 8
11613 15 2
11613 16 2
11614 3 1
11615 3 1
11616 4 2
11616 5 8
11616 38 16
11617 34 1
11618 3 2
11618 18 2
11618 31 1
11619 2 1
11620 7 2
11620 8 1
11621 24 10
11622 24 1
11623 10 2
11623 21 41
11623 22 37
11623 34 1
11624 14 1
11625 10 1
11625 18 1
11626 4 1
11626 34 1
11627 5 1
11627 29 5
11628 10 1
11629 22 1
11630 28 1
11631 2 5
11631 3 5
11631 34 6
11632 19 1
11633 24 5
11634 34 1
11635 24 3
11635 28 1
11636 2 1
11637 24 17
11638 24 1
11639 29 1
11640 5 1
11641 38 2
11642 26 1
11643 1 3
11643 2 21
11643 3 35
11643 34 52
11644 9 1
11644 19 1
11645 2 1
11645 12 1
11645 29 1
11646 24 1
11647 12 1
11648 1 2
11648 2 13
11648 3 37
11648 34 51
11649 38 1
11650 28 1
11650 29 1
11650 34 1
11651 31 2
11652 29 1
11653 16 1
11654 18 1
11655 29 1
11656 9 2
11656 11 4
11657 9 1
11658 2 1
11659 25 2
11659 26 4
11659 29 2
11660 29 1
11661 18 1
11661 26 1
11661 29 14
11661 30 1
11662 12 19
11662 13 4
11662 14 17
11663 8 1
11664 29 13
11665 29 1
11666 21 1
11666 25 1
11666 26 2
11667 1 4
11667 2 30
11667 3 38
11667 34 53
11668 9 13
11668 10 23
11668 11 25
11669 2 1
11670 4 1
11670 5 28
11670 38 34
11671 34 1
11672 9 1
11673 9 1
11675 24 1
11676 24 1
11677 9 1
11678 26 1
11679 5 1
11680 29 1
11681 24 1
11682 2 21
11682 3 21
11682 34 37
11683 34 1
11684 3 1
11684 38 1
11685 1 1
11685 2 6
11685 3 33
11685 34 34
11686 25 1
11686 26 3
11687 34 1
11688 2 20
11688 3 36
11688 15 1
11688 34 61
11689 5 1
11690 5 1
11690 18 10
11690 19 19
11690 20 6
11691 18 1
11691 34 1
11692 4 1
11692 38 2
11693 2 3
11693 3 18
11693 34 14
11694 38 1
11695 1 1
11695 2 16
11695 3 29
11695 34 50
11696 11 1
11697 1 1
11697 2 2
11697 3 15
11697 34 15
11698 21 7
11698 22 7
11699 12 1
11699 14 1
11699 19 2
11699 33 1
11700 31 1
11701 5 1
11702 7 1
11702 8 7
11703 38 1
11704 3 1
11705 2 3
11705 3 10
11705 34 15
11706 38 1
11707 15 3
11707 16 2
11708 31 5
11709 5 1
11710 34 1
11711 2 1
11711 29 4
11711 34 1
11712 29 1
11713 31 9
11713 32 1
11713 33 1
11713 38 1
11714 30 1
11714 38 1
11715 5 1
11716 26 9
11717 38 1
11718 25 1
11718 26 5
11719 29 1
11720 29 6
11720 30 1
11720 34 1
11721 12 8
11721 14 7
11722 24 1
11723 21 1
11724 15 1
11725 29 1
11726 4 1
11726 5 6
11726 8 1
11726 15 8
11726 16 6
11726 17 8
11726 18 1
11726 38 9
11727 24 1
11728 12 4
11728 14 2
11729 8 2
11730 21 2
11730 22 2
11731 25 2
11731 26 13
11731 29 1
11732 15 1
11732 17 1
11732 34 1
11733 11 1
11734 29 1
11735 3 1
11736 5 1
11736 18 1
11736 24 3
11737 5 1
11737 24 1
11738 21 3
11738 22 3
11739 5 1
11739 17 1
11739 29 9
11740 17 1
11742 12 3
11742 13 1
11742 14 5
11742 34 1
11743 12 5
11743 14 5
11744 29 1
11745 34 1
11746 9 12
11746 10 5
11746 11 5
11747 24 6
11748 2 1
11749 4 1
11749 5 7
11749 38 12
11750 2 17
11750 3 19
11750 34 21
11751 7 1
11752 34 1
11753 5 1
11754 8 1
11754 15 1
11755 21 1
11756 25 1
11756 26 6
11757 21 17
11757 22 7
11758 28 1
11759 9 1
11759 15 1
11759 38 1
11760 24 6
11761 5 1
11762 12 1
11763 28 1
11763 29 1
11764 26 1
11765 34 1
11766 28 2
11767 38 1
11768 18 1
11769 24 1
11769 29 1
11770 24 27
11771 18 3
11771 19 7
11771 20 7
11771 29 1
11771 34 1
11772 19 1
11772 21 3
11772 22 2
11772 31 1
11773 1 2
11773 2 4
11773 3 16
11773 24 5
11773 34 17
11774 16 1
11775 5 1
11776 5 1
11777 15 2
11777 17 1
11778 21 6
11778 22 3
11779 3 1
11780 2 1
11780 31 1
11781 21 1
11782 20 1
11783 29 1
11784 2 1
11785 8 1
11786 19 1
11787 4 1
11787 24 1
11788 18 2
11789 38 1
11790 34 1
11791 3 1
11792 24 1
11793 11 1
11793 20 1
11793 34 1
11794 2 28
11794 3 48
11794 7 1
11794 24 1
11794 34 57
11795 2 1
11796 29 2
11797 2 1
11798 3 1
11798 22 1
11799 2 1
11800 2 7
11800 3 7
11800 34 13
11801 5 1
11802 29 2
11803 15 1
11803 34 1
11804 10 1
11805 38 1
11806 3 1
11807 19 1
11808 38 1
11809 7 1
11810 1 1
11810 2 12
11810 3 28
11810 34 18
11811 3 1
11812 28 6
11813 24 4
11814 12 7
11814 14 7
11814 28 1
11815 7 3
11815 8 2
11815 10 1
11816 34 1
11817 3 1
11817 18 1
11817 26 1
11818 3 1
11818 5 2
11818 10 1
11818 20 1
11818 24 1
11819 29 6
11820 19 1
11820 34 1
11821 12 1
11822 10 1
11822 19 1
11823 20 2
11824 21 1
11825 29 1
11826 15 1
11826 26 3
11827 29 1
11828 28 6
11829 12 1
11830 26 1
11831 24 1
11832 2 3
11832 3 5
11832 24 14
11832 34 7
11833 18 1
11834 19 1
11835 29 1
11836 38 1
11837 5 1
11837 26 1
11838 19 1
11839 12 1
11840 3 1
11840 12 1
11840 21 7
11840 22 4
11841 2 1
11842 3 1
11843 10 2
11843 11 3
11844 14 1
11845 4 1
11845 21 1
11845 29 8
11845 30 1
11846 12 6
11846 14 6
11847 21 1
11848 12 1
11849 2 29
11849 3 49
11849 8 1
11849 34 69
11850 14 1
11851 5 1
11851 12 1
11851 29 1
11852 38 1
11853 34 1
11854 3 1
11854 29 16
11855 19 1
11855 29 17
11856 38 1
11857 21 3
11857 22 1
11858 26 1
11859 31 1
11860 2 3
11860 34 2
11861 3 1
11862 3 1
11863 18 2
11863 19 3
11863 20 1
11864 2 1
11865 3 1
11866 24 10
11866 29 15
11867 31 1
11868 38 1
11869 18 10
11869 19 9
11869 20 3
11870 7 6
11870 8 9
11871 19 1
11871 24 1
11872 28 1
11873 3 1
11874 2 10
11874 3 14
11874 34 18
11875 3 1
11876 18 1
11877 25 1
11877 26 5
11878 19 1
11879 2 1
11879 34 8
11880 4 1
11881 21 12
11881 22 14
11882 21 1
11883 16 1
11883 17 1
11883 21 26
11883 22 15
11884 3 1
11885 4 3
11885 5 23
11885 29 1
11885 38 36
11886 28 1
11887 9 1
11887 12 1
11887 29 1
11888 24 1
11888 34 1
11889 18 1
11890 18 49
11890 19 54
11890 20 1
11890 38 1
11891 16 1
11892 22 1
11893 29 1
11894 29 1
11895 5 1
11896 18 1
11897 29 1
11898 3 1
11899 5 13
11899 38 14
11900 9 2
11900 11 1
11900 24 1
11901 15 18
11901 16 5
11901 17 8
11902 24 1
11902 29 27
11902 30 2
11903 29 13
11903 30 2
11903 34 1
11904 5 1
11905 12 1
11905 31 1
11906 31 13
11906 38 1
11907 34 1
11908 24 11
11909 29 1
11909 31 4
11910 38 1
11911 3 1
11911 8 1
11912 8 1
11913 18 1
11914 11 1
11914 34 1
11915 31 4
11916 10 1
11917 18 1
11918 29 7
11918 30 2
11919 8 1
11919 18 1
11919 31 7
11920 23 1
11920 24 21
11920 29 1
11921 15 1
11921 16 1
11921 17 1
11922 3 1
11922 12 4
11922 13 1
11922 14 4
11922 29 6
11922 30 3
11923 24 5
11924 2 3
11924 3 20
11924 15 1
11924 34 27
11925 2 4
11925 3 1
11925 26 1
11925 34 2
11926 29 3
11926 30 1
11927 10 1
11928 9 1
11929 21 9
11929 22 10
11930 29 6
11931 2 1
11931 9 1
11932 18 1
11932 19 1
11932 21 1
11932 24 2
11932 34 1
11932 38 1
11933 15 1
11934 29 16
11934 30 1
11935 31 1
11936 3 1
11936 7 1
11937 21 1
11937 22 2
11938 24 1
11939 18 15
11939 19 15
11939 20 10
11940 34 1
11941 18 1
11941 31 1
11941 34 1
11942 24 1
11943 1 1
11944 2 7
11944 3 8
11944 34 8
11945 2 1
11946 19 1
11947 38 1
11948 38 1
11949 11 1
11950 31 1
11951 4 1
11952 29 1
11953 38 1
11954 14 1
11954 31 7
11954 34 1
11954 38 1
11955 4 3
11955 5 34
11955 38 41
11956 4 3
11956 5 6
11956 38 10
11957 5 1
11958 19 1
11959 5 1
11959 18 14
11959 19 15
11959 20 2
11960 19 1
11961 34 1
11962 9 3
11962 10 2
11962 11 4
11963 18 4
11963 19 9
11963 20 3
11964 18 1
11965 38 1
11966 2 1
11967 9 1
11968 8 1
11969 28 1
11970 2 1
11970 3 2
11970 34 1
11970 38 1
11971 18 1
11971 19 1
11971 20 1
11972 29 1
11973 4 1
11974 5 1
11975 8 1
11976 3 1
11976 31 13
11976 34 1
11977 29 1
11978 9 15
11978 10 23
11978 11 10
11978 26 1
11979 28 6
11980 18 1
11981 11 1
11982 29 6
11983 28 1
11984 4 2
11984 5 7
11984 21 1
11984 38 7
11986 5 1
11986 38 2
11987 28 3
11988 12 1
11988 34 1
11989 28 2
11989 31 11
11990 18 1
11990 19 1
11991 8 1
11992 15 1
11993 5 1
11994 3 1
11995 26 2
11996 23 1
11996 24 1
11997 1 1
11997 2 8
11997 3 6
11997 34 16
11998 19 1
11998 28 1
11998 34 1
11999 3 1
12000 24 1
12001 29 10
12001 30 3
12002 31 1
12003 2 1
12003 3 3
12003 34 5
12004 2 1
12004 5 1
12005 2 1
12006 13 1
12007 2 7
12007 3 18
12007 34 15
12008 21 1
12008 25 1
12008 26 3
12009 3 1
12010 23 1
12010 24 4
12010 38 1
12011 10 1
12012 9 1
12012 10 6
12012 11 8
12013 31 8
12014 4 1
12014 5 3
12014 25 1
12014 38 3
12015 2 1
12015 3 7
12015 24 1
12015 34 4
12016 24 2
12017 24 14
12018 4 2
12018 5 5
12018 8 9
12018 38 7
12019 34 1
12020 3 1
12020 5 1
12021 15 1
12022 38 1
12023 5 1
12023 21 1
12024 24 1
12024 29 19
12024 30 2
12025 34 1
12026 7 2
12026 26 1
12027 28 1
12028 16 1
12029 24 2
12030 1 1
12030 2 11
12030 3 15
12030 34 14
12031 38 2
12032 38 1
12033 22 1
12034 3 1
12035 12 3
12035 13 1
12035 14 2
12036 3 1
12037 24 7
12038 2 1
12038 34 2
12039 12 2
12040 38 1
12041 24 7
12042 4 1
12042 29 6
12043 29 1
12043 30 1
12044 34 1
12045 5 1
12046 7 11
12046 8 33
12047 2 15
12047 3 17
12047 26 1
12047 29 1
12047 34 16
12048 18 42
12048 19 40
12048 20 28
12048 38 1
12049 7 1
12050 18 7
12050 19 9
12050 20 5
12051 29 1
12052 24 7
12053 2 11
12053 3 9
12053 34 20
12054 34 1
12055 19 2
12055 21 16
12055 22 11
12056 18 1
12056 34 1
12057 3 1
12058 2 1
12059 18 1
12060 18 8
12060 19 12
12060 20 9
12061 3 1
12062 29 7
12062 30 1
12063 21 2
12063 22 2
12064 38 1
12065 18 1
12066 25 2
12066 26 3
12067 28 2
12068 24 5
12069 16 1
12069 17 2
12070 18 1
12070 29 1
12071 28 2
12071 38 1
12072 38 1
12073 18 2
12073 19 2
12073 20 1
12074 2 1
12075 38 1
12076 15 1
12077 38 1
12078 24 1
12079 8 1
12080 18 15
12080 19 9
12080 20 2
12081 19 1
12082 3 1
12083 18 1
12084 21 10
12084 22 7
12085 21 1
12086 10 1
12086 38 1
12087 34 1
12088 9 20
12088 10 18
12088 11 11
12089 34 1
12090 23 1
12090 24 2
12091 34 1
12092 2 6
12092 3 3
12092 34 8
12093 5 1
12094 15 2
12094 16 2
12095 24 10
12096 21 4
12096 22 3
12097 9 1
12097 10 1
12097 11 3
12098 24 1
12099 2 1
12100 18 13
12100 19 19
12100 20 4
12100 24 1
12101 29 8
12102 25 1
12102 26 9
12102 38 1
12103 2 1
12104 2 1
12105 28 1
12106 3 1
12106 24 6
12106 31 5
12107 12 1
12107 19 1
12107 29 4
12108 2 4
12108 3 6
12108 19 2
12108 24 1
12108 34 7
12109 1 2
12109 2 12
12109 3 29
12109 18 2
12109 34 43
12110 12 15
12110 13 1
12110 14 9
12110 29 1
12111 28 1
12111 31 13
12112 5 1
12113 3 1
12113 19 1
12113 24 1
12113 29 1
12114 23 1
12114 24 9
12115 24 9
12116 19 2
12116 21 1
12116 22 1
12117 5 1
12117 38 2
12118 31 1
12119 29 1
12120 3 1
12120 24 12
12121 34 1
12122 22 1
12123 12 23
12123 13 2
12123 14 23
12124 3 1
12124 15 1
12125 38 1
12126 34 1
12127 14 1
12128 12 6
12128 13 1
12128 14 1
12128 21 1
12128 34 1
12129 7 1
12130 2 5
12130 3 6
12130 34 14
12131 24 8
12131 29 4
12132 7 1
12133 4 1
12133 5 19
12133 7 1
12133 24 1
12133 38 20
12134 2 1
12134 3 1
12135 38 1
12136 3 1
12137 34 1
12138 4 1
12138 38 2
12139 23 1
12139 24 48
12139 26 1
12139 29 1
12140 34 1
12141 34 1
12142 20 1
12143 26 7
12144 2 17
12144 3 20
12144 34 32
12145 22 1
12145 24 30
12146 17 2
12147 12 1
12148 21 1
12149 8 2
12150 3 1
12151 14 1
12152 8 1
12152 10 2
12152 19 1
12152 38 1
12153 18 34
12153 19 29
12153 20 12
12153 34 1
12154 2 1
12154 24 12
12155 19 2
12156 18 1
12157 11 1
12157 14 3
12158 24 1
12159 8 1
12159 21 1
12159 29 4
12160 31 1
12161 3 1
12162 12 1
12162 18 19
12162 19 15
12162 20 8
12163 2 1
12164 28 1
12165 19 1
12166 29 3
12167 24 11
12168 3 1
12169 12 1
12169 14 1
12170 28 1
12171 29 1
12172 12 13
12172 14 6
12172 29 1
12173 2 1
12173 3 1
12173 5 1
12173 15 1
12173 34 3
12174 2 8
12174 3 14
12174 34 11
12175 12 1
12175 22 1
12176 21 1
12177 19 1
12178 34 1
12179 28 3
12179 34 1
12179 38 1
12180 7 2
12180 8 11
12180 21 2
12180 29 6
12180 34 1
12181 19 1
12182 18 1
12182 19 1
12183 38 1
12184 28 1
12185 12 1
12186 34 1
12187 34 1
12188 3 1
12189 3 1
12190 3 1
12190 10 1
12191 5 1
12191 34 1
12192 34 1
12193 7 1
12193 8 1
12193 15 5
12193 16 6
12193 17 5
12194 11 1
12195 34 1
12196 12 6
12196 14 7
12197 34 1
12198 14 1
12199 12 1
12200 31 1
12201 29 1
12202 24 32
12202 38 1
12203 4 5
12203 5 22
12203 38 23
12204 4 2
12204 5 1
12204 12 2
12204 14 3
12204 34 1
12204 38 2
12205 20 1
12205 21 25
12205 22 13
12206 2 1
12206 3 1
12206 29 1
12206 34 3
12207 5 1
12207 29 4
12208 18 1
12209 5 1
12209 38 1
12210 31 1
12211 31 3
12212 34 1
12213 11 1
12214 22 1
12215 3 1
12215 5 1
12216 1 1
12216 2 28
12216 3 33
12216 28 3
12216 34 30
12217 29 1
12218 34 1
12219 5 1
12220 24 1
12220 34 1
12221 5 1
12221 28 5
12222 3 1
12223 21 12
12223 22 18
12224 28 6
12225 1 1
12225 2 4
12225 3 6
12225 34 4
12226 5 1
12226 12 1
12226 14 2
12226 24 1
12226 34 1
12227 12 1
12227 15 1
12228 24 1
12228 29 1
12228 38 1
12229 29 1
12229 30 1
12230 18 1
12230 29 2
12230 31 4
12231 5 1
12231 29 23
12231 30 3
12231 38 1
12232 19 1
12232 29 7
12232 30 3
12233 29 1
12233 34 1
12234 29 1
12235 21 1
12236 9 9
12236 10 11
12236 11 11
12236 38 1
12237 10 1
12238 10 1
12239 2 1
12239 3 1
12239 19 1
12239 31 1
12240 2 1
12240 5 1
12241 31 3
12242 4 1
12242 5 2
12242 38 3
12243 2 4
12243 3 5
12243 24 1
12243 34 6
12244 18 10
12244 19 8
12244 20 5
12245 1 1
12245 2 6
12245 3 12
12245 22 1
12245 34 6
12246 9 12
12246 10 9
12246 11 12
12246 24 1
12247 9 1
12248 19 1
12248 24 1
12248 29 6
12249 19 1
12250 29 5
12250 30 1
12251 1 1
12251 2 3
12251 3 10
12251 34 14
12252 28 3
12252 29 3
12253 34 1
12254 3 1
12255 29 1
12256 3 1
12256 15 1
12257 24 13
12257 31 2
12258 10 1
12258 25 1
12258 26 16
12258 34 1
12258 38 1
12259 2 1
12259 5 1
12260 7 1
12261 34 1
12262 29 1
12263 29 1
12264 24 1
12265 38 1
12266 24 3
12267 31 8
12268 1 1
12268 2 2
12268 3 8
12268 25 3
12268 26 11
12268 34 9
12269 21 1
12270 2 9
12270 3 7
12270 34 9
12271 1 1
12272 19 1
12273 34 1
12274 3 3
12274 31 3
12274 34 1
12275 19 1
12276 38 1
12277 29 1
12278 38 2
12279 3 1
12280 12 1
12281 21 1
12281 24 1
12282 9 6
12282 10 14
12282 11 16
12282 15 16
12282 16 4
12282 17 10
12283 10 1
12284 17 1
12285 4 4
12285 5 25
12285 24 1
12285 38 29
12286 9 1
12286 19 1
12287 2 3
12287 3 8
12287 24 1
12287 29 1
12287 34 10
12287 38 1
12288 21 1
12288 22 1
12289 18 1
12290 31 1
12291 3 1
12291 29 1
12292 24 7
12293 4 6
12293 5 17
12293 20 1
12293 38 12
12294 4 1
12294 18 23
12294 19 23
12294 20 9
12295 9 1
12295 10 3
12295 18 7
12295 19 7
12295 20 2
12296 5 1
12297 12 1
12297 18 5
12297 19 7
12297 20 4
12298 10 1
12299 29 1
12300 18 1
12301 4 1
12301 5 4
12301 38 3
12302 7 1
12302 19 1
12303 26 5
12304 12 1
12305 12 16
12305 13 1
12305 14 8
12306 26 3
12307 12 4
12307 14 2
12308 3 1
12308 21 7
12308 22 8
12309 34 1
12310 3 1
12311 2 1
12311 34 1
12312 2 9
12312 3 12
12312 29 3
12312 34 13
12313 5 1
12313 31 5
12314 7 1
12315 14 1
12316 19 1
12317 18 1
12318 8 1
12319 29 7
12320 11 2
12321 3 1
12321 8 1
12322 18 1
12323 28 4
12323 29 8
12323 30 2
12324 29 1
12325 8 2
12326 24 1
12326 29 1
12327 31 3
12328 29 2
12329 18 1
12329 26 1
12330 24 1
12331 4 1
12331 12 18
12331 14 2
12331 19 2
12332 24 8
12333 3 1
12334 24 29
12334 34 1
12335 31 1
12336 9 11
12336 10 9
12336 11 19
12337 7 1
12337 8 1
12337 21 1
12337 24 1
12337 38 1
12338 18 1
12339 21 1
12340 17 2
12341 14 1
12342 11 1
12342 19 1
12342 25 1
12342 26 4
12342 31 2
12342 34 1
12343 2 1
12343 31 15
12344 19 1
12345 19 1
12346 2 3
12346 3 11
12346 34 13
12347 4 5
12347 5 15
12347 12 1
12347 38 16
12348 20 1
12348 31 2
12349 21 1
12350 38 1
12351 11 1
12352 12 19
12352 14 15
12353 26 1
12353 29 1
12354 7 9
12354 8 11
12354 9 16
12354 10 17
12354 11 16
12355 34 1
12356 31 2
12357 30 1
12358 24 1
12358 28 4
12359 24 9
12360 5 5
12360 11 1
12360 38 5
12361 29 5
12362 18 24
12362 19 25
12362 20 9
12363 4 5
12363 5 26
12363 18 53
12363 19 55
12363 20 18
12363 38 29
12364 24 1
12365 4 1
12365 5 3
12365 38 10
12366 25 3
12366 26 15
12367 18 1
12367 28 1
12368 12 1
12368 24 8
12369 11 1
12369 28 6
12370 16 1
12370 22 1
12370 34 1
12371 5 1
12372 21 1
12372 24 1
12373 20 1
12374 24 1
12374 29 18
12375 11 1
12375 24 7
12376 21 1
12376 26 2
12377 5 1
12378 8 1
12379 24 2
12379 26 7
12380 2 1
12381 19 1
12382 3 1
12383 4 10
12383 5 47
12383 18 1
12383 38 62
12384 1 1
12384 2 6
12384 3 10
12384 34 21
12385 3 7
12385 34 5
12385 38 1
12386 31 3
12387 3 1
12388 29 9
12388 30 1
12389 12 1
12390 29 1
12391 26 1
12392 5 1
12392 8 1
12393 2 24
12393 3 41
12393 34 53
12394 29 1
12395 30 1
12396 22 1
12397 18 1
12398 29 1
12399 3 1
12399 31 1
12400 12 2
12401 11 1
12401 29 3
12402 12 3
12402 14 2
12402 18 2
12402 19 6
12402 20 1
12403 5 1
12404 34 1
12405 28 5
12406 2 1
12407 29 1
12408 4 4
12408 5 7
12408 38 20
12409 25 1
12410 15 7
12410 16 2
12410 17 8
12411 3 1
12411 28 1
12412 8 1
12413 2 1
12413 22 1
12414 38 1
12415 24 1
12416 5 1
12417 24 11
12418 21 3
12418 22 3
12418 29 1
12419 9 1
12420 21 1
12421 18 1
12422 5 1
12422 29 1
12423 29 3
12423 30 1
12423 31 6
12424 29 1
12425 29 17
12425 30 3
12426 18 1
12426 24 13
12426 34 2
12426 38 1
12427 5 1
12428 2 1
12428 20 1
12428 38 1
12429 19 1
12430 21 18
12430 22 7
12431 21 1
12432 2 1
12432 26 1
12432 34 4
12433 5 1
12433 38 1
12434 12 1
12434 24 4
12435 24 5
12436 3 1
12436 19 1
12436 34 2
12436 38 1
12437 21 9
12437 22 8
12438 18 17
12438 19 10
12438 20 1
12439 11 1
12440 34 1
12441 7 1
12441 34 1
12441 38 1
12442 26 3
12443 31 1
12444 8 2
12444 16 2
12444 31 8
12445 11 1
12446 34 1
12447 3 1
12447 26 1
12448 28 3
12449 24 5
12450 28 1
12451 16 1
12452 5 1
12452 27 1
12452 28 1
12453 22 1
12454 15 1
12454 21 1
12454 22 2
12454 31 1
12455 15 1
12456 15 2
12456 17 4
12457 21 1
12458 26 1
12459 34 1
12460 28 4
12461 14 1
12461 15 1
12461 29 1
12462 22 1
12462 31 18
12463 34 1
12464 38 1
12465 10 1
12466 12 1
12466 19 1
12467 14 1
12468 2 3
12468 3 3
12468 5 2
12468 18 8
12468 19 9
12468 20 5
12468 34 1
12468 38 1
12469 4 12
12469 5 45
12469 14 1
12469 38 66
12470 5 1
12471 13 1
12471 14 2
12472 24 1
12473 10 1
12474 19 1
12475 24 1
12476 34 1
12477 26 6
12478 24 6
12479 31 3
12480 5 1
12481 2 1
12482 1 1
12482 2 1
12482 3 3
12482 20 1
12482 24 1
12482 34 12
12482 38 1
12483 28 1
12484 18 68
12484 19 79
12484 20 24
12485 24 6
12486 3 1
12487 24 8
12488 8 1
12488 29 1
12489 7 6
12489 8 14
12490 2 15
12490 3 24
12490 34 42
12491 26 1
12492 5 4
12492 38 5
12493 2 1
12493 3 2
12493 5 1
12493 8 1
12493 14 1
12493 19 2
12493 26 2
12493 31 1
12493 34 2
12493 38 3
12494 29 1
12495 34 1
12496 29 1
12497 21 5
12497 22 2
12498 34 1
12499 18 2
12499 19 7
12499 20 5
12500 38 1
12501 4 23
12501 5 38
12501 38 54
12502 15 3
12502 16 1
12502 17 1
12502 38 1
12503 5 1
12504 38 1
12505 5 1
12506 21 44
12506 22 40
12506 38 1
12507 3 1
12507 24 2
12507 31 2
12507 34 1
12508 34 1
12509 2 1
12510 4 1
12511 21 8
12511 22 2
12511 26 1
12512 38 1
12513 5 1
12514 1 1
12514 2 13
12514 3 15
12514 34 16
12515 4 1
12516 34 1
12517 4 1
12517 12 4
12518 38 1
12519 18 1
12519 19 1
12520 16 1
12521 29 1
12522 3 1
12522 34 1
12523 2 1
12524 12 2
12524 14 2
12525 19 1
12526 1 1
12526 2 10
12526 3 16
12526 34 17
12527 5 1
12527 24 2
12528 9 1
12529 31 4
12530 24 1
12531 19 1
12532 12 1
12533 8 2
12534 5 1
12534 10 1
12534 18 2
12534 26 1
12534 38 1
12535 29 9
12536 18 1
12537 38 1
12538 3 1
12539 20 1
12539 26 1
12539 31 2
12539 34 1
12540 29 6
12541 8 1
12541 26 2
12542 28 2
12543 2 1
12543 3 1
12544 24 4
12545 25 1
12545 26 3
12545 29 35
12545 30 1
12546 5 1
12547 25 1
12547 34 1
12548 34 1
12549 12 1
12550 21 1
12551 10 1
12552 29 18
12552 30 2
12553 2 1
12554 2 3
12554 3 11
12554 34 21
12555 12 8
12555 14 6
12556 29 1
12557 38 1
12558 38 1
12559 3 1
12559 29 1
12559 34 1
12560 26 2
12561 31 1
12561 38 1
12562 21 4
12562 34 1
12563 18 1
12563 19 2
12564 31 1
12565 29 1
12566 29 16
12566 30 1
12567 30 1
12568 15 5
12568 16 2
12568 17 2
12568 29 1
12568 34 1
12569 29 19
12569 30 1
12570 10 2
12570 34 1
12571 2 1
12571 11 1
12571 19 1
12572 18 1
12573 24 1
12574 18 1
12575 12 12
12575 13 1
12575 14 7
12576 24 8
12577 5 1
12578 10 1
12578 21 1
12578 22 1
12579 26 3
12580 21 10
12580 22 1
12581 7 16
12581 8 35
12582 28 3
12583 3 1
12583 17 1
12583 19 1
12584 38 1
12585 4 9
12585 5 19
12585 29 1
12585 38 22
12586 25 1
12586 26 1
12587 25 1
12587 26 2
12588 3 1
12588 4 1
12588 5 1
12588 19 1
12588 29 5
12588 30 1
12589 2 1
12590 20 1
12590 31 6
12591 2 17
12591 3 31
12591 34 40
12592 2 1
12593 19 1
12594 34 1
12595 2 1
12596 5 1
12597 24 1
12598 4 2
12598 5 13
12598 38 27
12599 4 1
12600 2 1
12600 5 2
12600 8 2
12600 15 3
12600 16 1
12600 17 3
12601 29 1
12602 26 6
12602 29 1
12603 2 1
12603 5 1
12604 15 1
12604 38 1
12605 31 1
12606 24 3
12607 2 1
12607 19 2
12608 4 5
12608 5 16
12608 38 16
12609 18 1
12610 18 1
12611 24 1
12612 28 1
12613 18 2
12613 19 1
12613 20 1
12614 15 1
12614 24 1
12614 26 1
12615 12 1
12615 14 2
12615 24 2
12616 23 1
12616 24 3
12617 7 4
12617 8 6
12617 21 1
12617 29 1
12617 34 1
12618 28 5
12619 31 2
12620 5 1
12621 5 3
12621 38 3
12622 24 1
12622 28 1
12623 4 1
12624 24 1
12625 29 13
12625 30 1
12626 12 13
12626 14 12
12626 31 1
12627 19 1
12628 29 1
12629 3 1
12629 5 6
12629 38 4
12630 29 1
12631 16 1
12631 24 1
12631 29 1
12632 12 17
12632 13 1
12632 14 10
12632 21 2
12632 22 4
12632 31 1
12633 28 2
12634 18 14
12634 19 9
12634 20 7
12635 15 1
12635 16 1
12635 17 3
12636 16 2
12637 2 2
12637 3 1
12637 8 1
12637 21 1
12637 24 6
12637 29 11
12638 18 47
12638 19 52
12638 20 16
12639 19 1
12640 5 2
12640 29 1
12640 38 2
12641 18 1
12642 12 9
12642 13 1
12642 14 8
12643 28 1
12644 34 1
12645 31 15
12646 38 1
12647 10 1
12648 11 1
12649 9 3
12649 10 2
12649 11 2
12649 34 1
12650 19 1
12650 22 1
12650 29 1
12650 34 1
12650 38 1
12651 29 14
12652 29 1
12653 5 1
12653 34 1
12654 19 2
12655 19 1
12655 24 1
12655 31 5
12656 28 1
12657 5 1
12658 22 1
12659 11 2
12660 24 2
12661 19 1
12661 24 1
12662 18 1
12662 19 2
12663 4 1
12663 5 9
12663 38 6
12664 2 10
12664 3 10
12664 34 16
12665 3 1
12666 14 1
12667 31 8
12668 15 1
12669 28 1
12670 8 1
12670 24 1
12671 34 1
12672 29 3
12673 4 4
12673 5 18
12673 38 8
12674 29 1
12675 3 1
12675 24 7
12676 5 1
12676 21 1
12677 4 3
12677 5 15
12677 15 1
12677 16 1
12677 17 1
12677 38 22
12678 4 1
12678 5 6
12678 38 12
12679 2 1
12679 34 1
12680 38 1
12681 8 1
12682 3 1
12683 28 1
12684 21 1
12685 31 1
12686 7 9
12686 8 11
12687 28 3
12688 21 14
12688 22 13
12689 7 1
12689 8 11
12690 5 1
12690 9 4
12690 10 2
12690 11 6
12691 4 2
12691 28 3
12691 29 1
12692 31 1
12693 21 5
12694 34 2
12695 26 1
12696 10 1
12696 34 2
12697 11 1
12698 11 1
12698 21 1
12698 25 1
12698 26 8
12699 17 1
12700 22 1
12700 31 9
12701 21 1
12702 29 1
12703 29 8
12703 30 1
12704 24 1
12705 3 1
12705 5 1
12705 29 5
12705 30 1
12705 34 1
12706 26 3
12707 2 1
12707 24 15
12708 2 8
12708 3 14
12708 24 5
12708 34 21
12709 12 1
12710 3 1
12711 34 1
12711 38 1
12712 28 7
12713 8 1
12714 8 1
12715 12 1
12716 38 1
12717 4 8
12717 5 37
12717 38 43
12718 8 1
12719 21 19
12720 24 17
12720 29 1
12721 4 1
12722 24 1
12723 19 1
12724 2 1
12724 15 1
12725 27 1
12726 2 13
12726 3 45
12726 34 47
12727 7 1
12728 7 5
12728 8 7
12729 15 1
12730 12 2
12730 14 5
12731 14 1
12731 38 1
12732 2 1
12732 34 3
12733 21 1
12733 22 2
12734 21 4
12734 22 1
12735 12 4
12735 14 1
12736 15 4
12736 16 3
12736 17 3
12737 19 1
12738 29 1
12739 2 8
12739 3 12
12739 34 28
12740 4 1
12741 38 1
12742 9 1
12742 10 3
12742 11 1
12743 24 11
12743 26 1
12744 1 1
12744 2 16
12744 3 16
12744 5 1
12744 21 1
12744 34 31
12745 5 1
12745 24 16
12746 3 1
12747 3 1
12747 10 1
12747 21 6
12747 22 3
12748 18 12
12748 19 14
12748 20 5
12749 17 1
12750 1 1
12750 2 22
12750 3 35
12750 34 44
12751 26 1
12752 15 2
12752 16 1
12752 17 3
12753 19 1
12754 26 1
12755 5 1
12756 29 10
12756 30 1
12757 34 1
12758 22 1
12759 29 24
12759 30 3
12760 14 1
12761 31 7
12762 2 1
12762 21 1
12762 34 1
12763 5 1
12764 31 1
12765 2 1
12766 1 1
12766 2 2
12766 3 14
12766 34 10
12767 24 1
12767 29 2
12767 31 3
12768 12 15
12768 13 1
12768 14 3
12769 19 3
12770 19 1
12771 5 1
12772 2 1
12773 21 24
12773 22 9
12774 34 1
12775 12 1
12775 18 90
12775 19 62
12775 20 7
12775 22 1
12776 15 2
12777 28 2
12778 19 1
12779 22 1
12780 26 1
12780 29 6
12780 30 1
12781 12 2
12781 18 1
12782 2 1
12782 12 1
12783 31 3
12784 16 1
12785 31 1
12786 21 1
12787 3 1
12787 30 1
12788 5 1
12789 28 1
12790 7 5
12790 8 6
12791 3 1
12791 15 16
12791 16 22
12791 17 22
12792 15 11
12792 16 2
12792 17 1
12793 24 10
12794 8 1
12795 5 1
12795 16 1
12796 2 1
12797 5 1
12798 8 1
12799 9 1
12799 12 4
12800 13 1
12800 14 16
12801 29 7
12801 30 1
12802 34 1
12803 24 4
12804 5 1
12804 24 1
12804 34 1
12805 9 42
12805 10 41
12805 11 32
12805 19 1
12805 24 1
12806 5 1
12807 21 11
12807 22 7
12808 23 1
12808 24 25
12809 4 2
12809 10 1
12809 19 1
12809 38 2
12810 9 1
12811 12 1
12812 26 2
12813 3 1
12814 18 1
12815 29 17
12815 30 1
12816 3 1
12817 29 1
12818 2 4
12818 3 5
12818 34 11
12819 22 1
12819 31 2
12821 18 1
12822 24 1
12823 7 8
12823 8 6
12824 26 1
12824 34 1
12824 38 1
12825 10 1
12825 11 1
12825 19 1
12826 3 1
12827 17 1
12827 34 1
12828 2 1
12828 7 1
12828 24 11
12829 29 1
12830 8 1
12830 18 1
12831 38 1
12832 24 1
12833 24 13
12834 12 1
12834 14 1
12835 3 1
12836 18 1
12837 7 4
12837 8 4
12837 19 1
12838 18 17
12838 19 17
12838 20 8
12839 14 1
12840 2 10
12840 3 31
12840 34 36
12841 31 3
12842 28 1
12842 29 8
12842 34 1
12843 3 1
12844 34 1
12845 12 1
12846 4 1
12846 5 4
12846 31 1
12846 38 2
12847 18 1
12847 19 5
12848 18 1
12849 3 1
12850 38 1
12851 26 1
12852 1 1
12852 2 1
12852 3 3
12852 24 2
12852 34 3
12853 5 1
12853 18 1
12853 19 2
12854 2 12
12854 3 12
12854 19 3
12854 20 1
12854 24 9
12854 34 28
12855 3 1
12855 34 1
12856 17 1
12856 24 1
12856 28 2
12857 2 3
12857 3 4
12857 34 3
12858 24 1
12859 11 1
12859 18 1
12860 15 2
12860 16 1
12861 4 5
12861 5 22
12861 38 24
12862 18 1
12863 9 10
12863 10 13
12863 11 17
12863 22 1
12864 21 1
12865 18 9
12865 19 13
12865 20 7
12866 5 1
12867 7 1
12868 3 1
12869 2 3
12869 3 9
12869 34 8
12870 5 1
12870 15 1
12870 18 1
12870 31 12
12871 2 1
12872 3 1
12873 31 3
12874 2 1
12875 24 6
12876 34 1
12877 21 4
12877 22 2
12878 12 2
12878 17 1
12879 2 8
12879 3 14
12879 34 13
12880 24 14
12881 10 1
12882 30 1
12883 21 1
12884 18 9
12884 19 14
12884 20 9
12885 24 4
12885 34 1
12886 24 1
12887 38 1
12888 2 1
12889 2 14
12889 3 16
12889 34 11
12890 12 1
12891 5 1
12892 18 25
12892 19 32
12892 20 6
12892 38 1
12893 5 1
12894 12 1
12894 29 2
12894 34 1
12895 21 11
12895 22 10
12896 1 1
12896 2 27
12896 3 32
12896 34 58
12897 21 1
12898 29 4
12899 18 1
12900 20 1
12901 4 1
12902 20 1
12902 23 1
12902 24 3
12903 20 1
12904 21 1
12904 26 3
12905 21 3
12905 22 1
12906 2 1
12906 3 4
12906 34 4
12907 19 1
12908 7 4
12908 8 6
12909 22 1
12910 2 1
12910 15 5
12910 17 1
12911 20 1
12911 29 5
12912 24 3
12913 3 1
12913 10 1
12913 14 1
12913 19 1
12913 24 1
12914 19 1
12914 38 1
12915 12 10
12915 14 7
12916 26 1
12917 4 12
12917 5 62
12917 38 64
12918 11 1
12919 38 1
12920 29 1
12920 31 3
12921 28 1
12922 2 2
12922 3 8
12922 34 6
12923 28 3
12924 24 1
12925 24 1
12926 2 1
12926 3 2
12926 34 6
12927 24 2
12928 2 4
12928 3 1
12928 34 1
12929 26 1
12930 12 1
12931 1 1
12931 2 13
12931 3 33
12931 34 40
12932 4 1
12933 5 1
12934 38 1
12935 5 1
12936 31 1
12937 29 1
12938 4 1
12939 18 1
12940 9 1
12940 10 2
12940 11 3
12941 24 3
12941 29 7
12942 18 1
12942 19 1
12943 24 3
12944 2 4
12944 3 9
12944 34 14
12945 4 2
12945 5 20
12945 8 1
12945 38 11
12946 5 1
12947 38 1
12948 7 1
12948 8 2
12949 9 5
12949 10 2
12949 11 1
12949 38 2
12950 14 1
12951 11 1
12951 29 1
12952 26 1
12953 24 3
12954 24 1
12954 38 2
12955 11 4
12955 33 1
12956 24 1
12957 38 1
12958 2 1
12958 31 2
12959 24 5
12959 29 3
12960 20 1
12962 38 1
12963 2 7
12963 3 7
12963 34 8
12964 20 1
12965 31 1
12966 18 23
12966 19 30
12966 20 9
12967 8 2
12967 20 1
12968 38 1
12969 2 9
12969 3 5
12969 11 1
12969 34 9
12970 2 1
12970 28 1
12971 24 1
12972 8 1
12973 3 1
12974 4 2
12974 5 10
12974 34 1
12974 38 8
12975 34 1
12976 4 1
12976 5 10
12976 38 7
12977 23 1
12977 24 13
12978 5 1
12979 7 4
12979 8 8
12980 3 1
12981 2 1
12982 4 4
12982 5 41
12982 24 1
12982 38 52
12983 26 1
12984 1 1
12984 2 11
12984 3 15
12984 26 5
12984 34 17
12985 9 13
12985 10 10
12985 11 17
12986 3 1
12987 5 1
12987 15 6
12987 16 6
12987 17 2
12987 38 1
12988 3 1
12988 10 2
12989 11 1
12990 29 6
12991 2 1
12992 2 1
12993 38 1
12994 38 1
12995 31 5
12996 5 1
12996 22 1
12997 8 1
12998 21 3
12998 22 5
12999 24 5
12999 28 1
12999 29 8
13000 3 2
13001 10 1
13001 15 2
13001 16 1
13001 17 2
13002 3 1
13002 22 1
13002 31 7
13003 2 3
13003 26 3
13004 3 1
13005 3 1
13005 8 13
13005 19 1
13006 29 1
13007 24 1
13008 24 1
13009 9 13
13009 10 28
13009 11 14
13009 23 1
13010 2 2
13010 3 14
13010 34 13
13011 31 1
13012 21 1
13012 24 3
13013 7 1
13013 34 1
13014 28 7
13015 18 1
13016 21 3
13016 22 6
13017 11 1
13017 29 4
13018 2 1
13019 5 7
13019 34 1
13019 38 3
13020 5 1
13021 3 1
13021 9 2
13021 10 1
13021 11 4
13022 21 1
13023 29 5
13023 30 1
13024 21 1
13025 19 1
13026 20 1
13026 21 6
13026 22 8
13026 38 1
13027 29 5
13028 26 1
13029 24 9
13029 28 2
13029 29 1
13029 31 1
13030 12 27
13030 13 1
13030 14 15
13031 19 1
13032 19 1
13033 34 1
13034 29 1
13035 16 1
13035 34 1
13036 18 1
13036 31 1
13037 31 1
13038 28 1
13039 12 1
13040 24 1
13041 26 1
13042 12 1
13042 29 1
13043 29 1
13044 3 1
13044 9 1
13044 11 1
13045 29 16
13045 30 1
13046 12 1
13046 19 1
13046 24 10
13047 3 1
13047 18 6
13047 19 7
13047 20 3
13048 29 1
13049 3 1
13050 38 1
13051 12 1
13052 21 6
13052 22 5
13053 20 2
13054 3 1
13054 5 1
13054 22 1
13055 24 10
13055 28 10
13055 29 1
13056 7 4
13056 8 10
13056 9 1
13056 10 2
13056 11 3
13056 34 1
13057 2 23
13057 3 17
13057 34 27
13058 34 1
13059 16 1
13059 19 1
13060 31 1
13061 4 11
13061 5 52
13061 38 54
13062 21 12
13062 22 12
13063 5 5
13063 38 1
13064 2 1
13064 3 2
13064 19 1
13064 34 3
13065 16 10
13066 31 1
13067 15 1
13067 26 4
13067 29 1
13068 2 1
13069 38 1
13070 14 7
13071 3 1
13072 4 4
13072 5 20
13072 38 20
13073 18 1
13073 24 4
13074 21 9
13074 22 8
13075 4 1
13075 5 1
13076 2 1
13076 12 1
13076 20 1
13077 3 1
13078 18 45
13078 19 58
13078 20 31
13079 18 1
13079 19 1
13079 20 2
13079 29 2
13080 18 1
13081 11 1
13081 20 1
13082 24 3
13083 24 1
13084 29 26
13085 38 1
13087 18 1
13088 20 1
13089 10 2
13090 7 1
13090 8 7
13090 12 2
13090 14 1
13091 3 1
13092 19 1
13092 31 3
13093 29 1
13094 2 1
13094 4 6
13094 5 39
13094 38 35
13095 18 1
13096 5 1
13097 12 1
13098 18 1
13099 5 1
13099 26 1
13100 31 4
13101 21 7
13101 22 7
13102 38 1
13103 5 1
13103 10 1
13104 7 1
13104 19 1
13105 5 1
13106 2 1
13107 24 1
13108 12 1
13108 28 1
13108 29 1
13109 31 1
13110 2 1
13110 24 4
13111 34 1
13112 21 3
13112 22 2
13113 16 1
13113 24 4
13114 34 1
13115 4 1
13116 19 1
13116 24 4
13116 28 1
13117 12 1
13117 29 5
13117 38 2
13118 38 1
13119 2 1
13119 28 1
13119 29 1
13120 19 1
13121 14 1
13122 18 16
13122 19 14
13122 20 12
13123 14 1
13123 34 1
13124 1 1
13124 2 4
13124 3 24
13124 18 1
13124 19 1
13124 34 29
13125 3 1
13126 4 2
13126 5 9
13126 29 1
13126 38 15
13127 3 1
13127 7 5
13127 17 2
13127 18 1
13127 19 4
13127 20 1
13128 4 6
13128 5 10
13128 24 6
13128 38 17
13129 18 1
13130 34 1
13131 1 1
13131 2 6
13131 3 6
13131 19 1
13131 34 16
13132 7 8
13132 8 7
13133 21 1
13133 28 2
13133 34 1
13134 10 1
13134 11 2
13135 21 1
13136 34 1
13137 3 1
13138 5 1
13139 12 1
13140 24 15
13140 26 1
13140 29 1
13141 2 15
13141 3 25
13141 31 24
13141 34 37
13142 5 1
13142 18 6
13142 19 6
13143 34 1
13144 29 2
13145 20 1
13146 18 1
13147 18 27
13147 19 47
13147 20 15
13147 21 8
13147 22 12
13148 7 4
13148 8 9
13149 9 4
13149 10 12
13149 11 6
13150 14 1
13150 29 1
13151 5 1
13151 38 1
13152 4 3
13152 5 22
13152 38 20
13153 26 1
13154 5 1
13155 4 5
13155 5 9
13155 38 14
13156 5 1
13157 19 1
13158 5 4
13158 38 1
13159 16 1
13160 24 1
13161 24 8
13162 5 1
13163 12 2
13163 14 1
13164 24 1
13165 5 1
13165 24 6
13166 24 1
13167 28 1
13168 23 1
13168 24 3
13168 29 1
13169 2 1
13170 21 22
13170 22 11
13171 8 1
13172 38 1
13173 12 22
13173 13 1
13173 14 14
13174 8 1
13174 24 17
13174 28 1
13174 29 1
13175 24 1
13176 4 4
13176 5 8
13176 9 1
13176 38 7
13177 4 1
13177 29 5
13178 12 1
13179 38 1
13180 19 1
13181 9 1
13182 15 1
13182 24 1
13183 3 1
13183 29 19
13184 21 1
13184 22 4
13185 24 7
13185 29 1
13186 12 28
13186 14 12
13187 24 6
13187 26 4
13187 34 4
13188 29 7
13189 34 2
13190 4 1
13190 38 1
13191 3 1
13191 25 1
13192 34 1
13193 24 2
13194 4 3
13194 5 9
13194 38 11
13195 22 1
13195 26 1
13195 29 12
13195 30 1
13196 28 2
13197 29 1
13198 31 1
13199 34 1
13200 20 1
13201 34 1
13202 24 13
13203 34 1
13204 18 1
13204 24 15
13205 12 2
13205 31 6
13206 7 2
13206 8 5
13206 38 1
13207 11 1
13207 14 1
13208 28 4
13208 34 1
13209 28 3
13210 38 1
13211 2 5
13211 3 10
13211 34 30
13212 24 1
13213 2 2
13213 3 9
13213 20 1
13213 34 6
13214 14 1
13215 31 2
13216 3 1
13217 4 1
13218 10 1
13219 29 1
13220 2 7
13220 3 5
13220 25 1
13220 26 2
13220 31 3
13220 34 8
13221 5 1
13221 19 1
13221 34 1
13222 28 3
13223 28 2
13224 2 18
13224 3 16
13224 34 37
13225 5 1
13226 29 2
13226 30 1
13227 29 1
13228 24 3
13229 24 1
13229 29 15
13229 30 1
13230 21 13
13230 22 5
13231 31 1
13232 2 16
13232 3 17
13232 34 23
13233 15 1
13233 34 1
13234 15 15
13234 16 8
13234 17 13
13234 19 2
13235 4 1
13236 18 1
13236 19 3
13236 20 1
13237 25 3
13237 26 22
13238 29 24
13238 30 2
13239 4 1
13239 5 3
13239 38 6
13240 34 1
13241 4 1
13241 5 1
13241 38 2
13242 34 1
13243 3 1
13243 4 1
13243 7 1
13243 9 1
13243 12 1
13243 19 1
13243 20 1
13244 20 1
13245 3 1
13246 1 1
13246 2 16
13246 3 49
13246 34 40
13247 22 1
13248 21 1
13249 18 1
13250 15 2
13251 38 1
13252 34 1
13253 34 1
13254 29 2
13254 38 1
13255 19 1
13255 38 1
13256 24 1
13256 34 1
13257 38 1
13258 11 1
13258 29 5
13258 38 1
13259 34 1
13260 31 1
13261 24 1
13262 1 1
13262 26 1
13262 38 1
13263 24 3
13264 12 1
13264 18 1
13264 28 3
13265 25 1
13265 26 1
13266 29 16
13267 28 2
13268 24 2
13269 10 1
13270 18 1
13271 26 1
13272 29 9
13273 3 1
13274 18 2
13274 19 4
13275 38 1
13276 29 4
13276 30 1
13277 8 1
13278 9 1
13278 10 1
13278 11 2
13279 15 4
13279 16 1
13279 17 2
13280 2 1
13280 11 1
13280 14 1
13280 34 2
13280 38 1
13281 2 23
13281 3 16
13281 23 2
13281 24 36
13281 29 2
13281 31 3
13281 34 25
13282 19 1
13282 28 2
13283 20 1
13283 24 13
13284 19 1
13284 24 1
13285 30 1
13286 3 1
13287 2 5
13287 3 5
13287 34 13
13288 31 1
13289 5 1
13289 29 1
13290 3 1
13291 24 1
13292 29 1
13293 4 1
13293 12 1
13294 12 1
13294 15 2
13294 16 2
13294 17 1
13295 3 1
13295 5 1
13295 26 1
13295 29 1
13295 31 1
13295 34 1
13295 38 1
13296 29 1
13297 9 1
13297 18 1
13298 30 1
13299 24 3
13300 1 1
13300 2 20
13300 3 35
13300 34 49
13301 2 9
13301 3 15
13301 34 26
13302 23 1
13302 24 10
13303 29 29
13303 30 3
13304 19 1
13305 21 1
13305 22 2
13305 24 1
13306 21 13
13306 22 6
13306 29 1
13307 22 1
13308 8 1
13309 2 5
13309 3 19
13309 34 24
13310 21 1
13311 12 1
13311 28 3
13312 5 1
13313 5 1
13314 19 1
13314 22 1
13315 22 1
13315 31 1
13316 21 5
13316 22 5
13317 12 14
13317 13 1
13317 14 12
13318 5 1
13318 38 1
13319 19 1
13320 2 8
13320 3 12
13320 34 15
13321 34 1
13322 12 1
13323 5 1
13324 24 1
13325 38 1
13326 5 1
13327 14 1
13327 29 1
13328 30 1
13329 24 4
13330 7 1
13330 34 1
13331 9 1
13331 10 1
13331 11 1
13331 19 1
13332 2 4
13332 3 4
13332 34 8
13333 9 1
13333 15 1
13333 21 1
13334 2 1
13335 19 1
13335 29 20
13335 30 2
13336 2 4
13336 3 11
13336 34 11
13337 7 1
13337 14 1
13338 2 1
13339 2 32
13339 3 43
13339 34 44
13340 2 1
13341 38 1
13342 2 1
13342 3 3
13342 17 1
13342 18 2
13342 21 1
13342 22 2
13342 24 1
13342 29 1
13342 31 2
13342 34 1
13343 24 1
13343 38 1
13344 8 1
13345 29 1
13346 7 1
13346 12 2
13346 38 1
13347 29 1
13348 2 1
13348 28 1
13349 38 1
13350 12 13
13350 21 6
13350 22 6
13351 25 3
13351 26 6
13352 1 1
13352 2 18
13352 3 10
13352 5 1
13352 15 1
13352 24 7
13352 34 23
13353 21 1
13354 29 1
13355 38 1
13356 2 1
13357 1 1
13357 2 1
13357 3 3
13357 24 2
13357 34 6
13358 14 2
13359 38 1
13360 2 4
13360 3 14
13360 34 19
13361 19 1
13361 25 2
13361 26 12
13361 29 3
13362 16 1
13362 17 1
13362 21 1
13362 22 1
13363 5 1
13364 14 1
13365 15 1
13365 31 5
13365 34 1
13366 19 1
13367 5 1
13368 3 1
13369 26 1
13369 34 1
13370 3 1
13371 1 2
13371 2 9
13371 3 18
13371 34 22
13372 4 1
13373 38 1
13374 12 9
13374 14 7
13375 8 1
13375 34 1
13376 22 1
13376 24 1
13376 28 1
13377 29 5
13377 30 1
13378 10 1
13379 2 1
13380 15 5
13380 16 8
13380 17 4
13381 29 7
13382 29 1
13383 3 1
13384 21 1
13385 4 1
13385 5 9
13385 38 13
13386 19 1
13387 2 6
13387 3 11
13387 34 10
13388 29 1
13389 18 16
13389 19 5
13389 20 2
13390 5 1
13391 15 1
13392 7 4
13392 8 19
13392 31 1
13393 10 1
13393 38 3
13394 2 1
13395 34 1
13396 12 5
13396 14 5
13397 8 1
13398 19 1
13398 29 2
13398 30 1
13398 31 1
13399 31 1
13400 1 1
13400 2 19
13400 3 11
13400 24 6
13400 28 2
13400 29 13
13400 30 2
13400 34 19
13401 2 1
13401 18 1
13401 19 5
13401 29 3
13401 30 1
13401 38 1
13402 34 1
13402 38 1
13403 19 1
13404 21 1
13405 31 1
13406 23 1
13406 24 5
13407 14 1
13407 19 1
13408 2 1
13408 3 5
13408 34 11
13409 15 1
13409 29 1
13409 31 26
13410 5 1
13411 2 1
13412 34 1
13413 2 1
13413 12 1
13414 5 1
13414 34 1
13415 5 1
13416 1 1
13416 2 14
13416 3 17
13416 19 1
13416 28 4
13416 34 30
13416 38 1
13417 34 1
13418 18 1
13418 31 2
13419 24 4
13420 14 1
13421 18 1
13422 14 1
13423 8 1
13424 22 1
13425 5 1
13426 18 1
13426 24 1
13426 31 2
13427 4 2
13427 5 14
13427 38 8
13428 34 1
13429 16 1
13430 15 1
13431 24 20
13431 29 3
13432 16 1
13433 12 24
13433 13 3
13433 14 13
13433 22 2
13433 31 1
13434 10 2
13434 24 1
13435 34 1
13436 3 1
13436 34 6
13437 5 1
13438 21 1
13439 15 14
13439 16 5
13439 17 7
13439 29 1
13439 38 1
13440 5 1
13441 3 1
13441 10 1
13441 24 1
13442 15 1
13442 18 1
13443 24 9
13444 2 1
13445 3 1
13445 28 15
13446 18 13
13446 19 20
13446 20 5
13446 38 1
13447 3 1
13447 19 1
13448 3 1
13448 9 2
13448 10 3
13449 2 1
13450 12 1
13450 38 2
13451 3 1
13451 24 3
13451 29 16
13451 30 2
13452 4 1
13452 5 13
13452 38 8
13453 7 1
13454 21 2
13454 22 4
13455 24 1
13455 29 1
13456 34 1
13457 3 1
13458 20 1
13459 31 8
13460 29 1
13461 10 1
13461 18 1
13462 38 1
13463 3 3
13463 34 2
13464 2 1
13465 26 1
13466 19 1
13466 29 2
13466 30 2
13467 14 1
13468 34 1
13469 21 1
13469 29 1
13469 30 2
13469 34 1
13470 24 1
13471 18 1
13471 19 1
13471 21 1
13471 34 2
13472 29 8
13472 30 1
13473 22 1
13473 31 2
13474 5 4
13474 7 1
13474 15 9
13474 16 5
13474 17 8
13474 21 8
13474 22 13
13474 38 3
13475 38 1
13476 3 1
13476 28 6
13477 9 2
13477 29 6
13478 38 1
13479 10 1
13479 29 2
13479 30 1
13480 28 3
13481 5 1
13482 15 1
13483 11 1
13484 12 8
13484 14 5
13485 12 1
13485 31 1
13486 3 3
13486 5 1
13486 34 5
13487 21 19
13487 22 19
13488 29 1
13488 34 1
13489 3 1
13490 29 7
13490 30 1
13491 3 1
13492 21 3
13492 22 3
13493 29 3
13493 34 1
13494 18 2
13494 19 1
13495 3 1
13496 29 1
13497 31 1
13498 2 1
13499 8 1
13499 18 4
13499 19 4
13499 20 1
13499 28 1
13499 34 1
13499 38 1
13500 26 1
13501 4 1
13501 5 7
13501 38 4
13502 24 20
13503 16 1
13504 24 17
13504 26 1
13505 5 1
13506 5 1
13507 5 1
13507 18 2
13507 19 1
13507 20 2
13507 29 1
13508 24 1
13509 3 1
13510 18 1
13510 19 1
13511 21 8
13511 22 4
13512 34 1
13513 12 1
13513 14 1
13513 24 1
13514 38 1
13515 22 1
13516 29 2
13516 30 1
13517 29 6
13518 18 28
13518 19 44
13518 20 9
13519 24 1
13519 26 1
13520 31 12
13521 19 1
13521 29 4
13522 3 2
13522 34 1
13523 24 13
13524 29 11
13524 30 1
13525 12 8
13525 14 1
13525 24 1
13526 1 1
13526 2 3
13526 3 6
13526 24 5
13526 34 8
13527 24 1
13528 19 1
13529 12 1
13530 14 1
13530 31 2
13531 5 2
13531 8 1
13531 38 3
13532 9 3
13532 10 2
13532 11 1
13533 34 2
13533 38 2
13534 12 1
13535 12 1
13535 14 1
13536 4 1
13536 5 7
13536 38 6
13537 34 1
13538 2 28
13538 3 39
13538 34 40
13539 1 1
13539 2 6
13539 3 17
13539 34 23
13540 34 1
13541 26 1
13542 19 1
13542 34 1
13543 3 1
13544 2 2
13544 29 19
13544 30 1
13545 38 1
13546 2 5
13546 3 4
13546 34 4
13547 29 1
13548 5 1
13548 31 1
13548 34 1
13549 29 8
13549 30 1
13550 24 14
13551 19 1
13551 29 1
13552 24 1
13552 30 1
13553 12 10
13553 14 9
13553 24 1
13554 18 13
13554 19 25
13554 20 6
13555 4 11
13555 5 19
13555 29 3
13555 30 1
13555 38 26
13556 2 1
13556 24 6
13557 4 3
13557 5 23
13557 38 27
13558 12 1
13559 7 1
13559 8 1
13559 29 11
13559 30 1
13560 34 1
13561 4 3
13561 5 1
13561 38 2
13562 3 1
13563 4 1
13563 14 1
13563 29 4
13564 38 1
13565 31 1
13566 2 3
13566 3 3
13566 26 2
13566 31 2
13566 34 3
13567 31 1
13568 2 1
13568 3 1
13568 29 10
13569 21 2
13569 22 5
13570 5 4
13570 38 2
13571 28 1
13571 29 10
13572 2 1
13572 12 1
13572 19 1
13573 13 1
13573 24 3
13574 29 1
13575 3 1
13576 2 19
13576 3 18
13576 24 2
13576 31 3
13576 34 27
13577 34 1
13578 3 1
13579 4 2
13579 5 8
13579 38 13
13580 3 1
13581 3 2
13582 21 1
13583 2 1
13584 21 1
13585 21 1
13586 5 22
13586 38 22
13587 21 11
13587 22 10
13588 9 19
13588 10 13
13588 11 20
13589 29 21
13590 29 1
13591 14 1
13592 9 1
13592 10 1
13592 24 1
13592 29 1
13593 26 1
13594 18 1
13595 29 1
13596 11 1
13596 24 2
13596 31 22
13597 18 12
13597 19 20
13597 20 3
13598 4 13
13598 5 42
13598 38 32
13599 29 1
13600 15 1
13600 16 2
13600 17 1
13601 5 1
13602 24 9
13603 29 1
13604 3 1
13605 18 1
13606 38 1
13607 24 8
13608 1 1
13608 2 10
13608 3 19
13608 34 14
13609 23 1
13609 24 9
13610 19 1
13611 9 1
13611 11 1
13612 21 1
13613 19 1
13614 21 1
13615 18 1
13616 9 2
13616 10 6
13616 11 5
13616 34 1
13617 34 1
13618 29 1
13619 11 1
13620 31 2
13621 34 1
13622 11 1
13622 16 1
13623 12 3
13623 14 1
13624 3 1
13625 31 21
13625 34 1
13626 3 2
13627 14 1
13628 21 14
13628 22 11
13628 34 1
13629 24 11
13630 2 1
13630 9 4
13630 10 3
13630 11 3
13630 24 1
13631 22 1
13632 21 1
13633 2 1
13633 12 5
13633 14 3
13633 34 1
13634 3 1
13634 20 1
13635 34 1
13636 16 1
13637 15 11
13637 16 13
13637 17 5
13637 24 1
13638 24 1
13639 29 1
13640 24 7
13641 24 1
13642 24 6
13643 24 2
13644 29 1
13645 26 1
13646 24 1
13647 4 1
13647 5 3
13647 38 4
13648 30 1
13649 1 1
13649 2 5
13649 3 28
13649 24 1
13649 34 43
13650 3 1
13651 4 2
13651 5 5
13651 38 10
13652 3 1
13652 5 1
13652 31 5
13652 34 1
13653 4 1
13653 5 6
13653 38 3
13654 24 1
13655 29 7
13656 2 1
13656 34 1
13657 24 2
13658 38 2
13659 28 1
13660 4 1
13660 5 14
13660 29 5
13660 38 12
13661 22 1
13661 25 1
13661 26 1
13662 3 1
13662 26 1
13663 15 2
13663 16 2
13663 17 1
13664 4 6
13664 5 16
13664 38 32
13665 12 2
13665 14 2
13666 2 1
13667 5 3
13667 8 1
13667 21 1
13667 24 1
13667 29 1
13667 34 2
13668 28 2
13669 2 11
13669 3 19
13669 34 17
13670 34 1
13671 21 1
13671 24 19
13672 14 1
13673 8 1
13674 28 1
13675 34 1
13676 15 2
13676 16 2
13676 17 3
13677 34 1
13678 5 1
13679 17 1
13679 28 3
13680 34 1
13681 21 8
13681 22 4
13682 18 1
13683 12 6
13683 13 1
13683 14 2
13684 9 4
13684 10 10
13684 11 6
13685 34 1
13686 4 1
13686 21 1
13686 30 1
13686 34 1
13686 38 1
13687 19 1
13687 28 4
13688 4 12
13688 5 37
13688 38 45
13689 3 1
13689 22 1
13689 29 15
13690 34 1
13691 24 1
13692 24 9
13692 29 2
13692 31 1
13693 24 8
13694 24 4
13695 31 1
13696 3 1
13697 5 1
13697 24 15
13698 15 1
13699 2 19
13699 3 55
13699 34 45
13700 3 1
13701 3 1
13701 12 1
13702 11 1
13703 9 2
13703 10 4
13703 11 2
13704 3 1
13704 5 1
13704 24 1
13705 24 1
13706 34 1
13707 28 1
13708 12 1
13709 2 8
13709 3 18
13709 34 26
13710 31 12
13711 2 1
13712 5 1
13712 19 2
13713 18 1
13713 24 5
13714 10 1
13715 16 1
13716 29 8
13717 2 1
13717 22 1
13718 5 1
13718 8 1
13718 29 1
13719 5 1
13719 38 2
13720 3 1
13720 24 1
13720 34 1
13721 15 1
13722 24 1
13723 18 3
13723 19 3
13723 20 2
13723 34 1
13724 21 1
13724 26 1
13725 4 2
13725 5 1
13725 38 1
13726 34 1
13727 29 14
13728 31 1
13729 4 1
13730 17 1
13731 34 1
13732 16 2
13732 17 1
13732 18 95
13732 19 131
13732 20 37
13733 3 1
13733 21 10
13733 22 7
13734 29 1
13735 38 1
13736 19 1
13737 16 43
13738 19 1
13739 3 1
13740 34 1
13741 9 12
13741 10 17
13741 11 13
13741 15 1
13742 9 4
13742 10 9
13742 11 10
13743 24 2
13744 2 2
13744 3 5
13744 24 3
13744 28 2
13744 29 4
13744 34 10
13745 10 1
13746 2 8
13746 3 25
13746 14 1
13746 34 26
13747 34 1
13748 24 7
13749 4 4
13749 5 13
13749 38 11
13750 3 1
13751 17 2
13752 3 1
13753 38 1
13754 3 1
13755 31 3
13756 5 1
13756 24 19
13757 24 2
13757 29 5
13757 30 1
13757 31 4
13758 14 1
13758 18 1
13758 24 1
13758 31 1
13759 17 1
13760 18 11
13760 19 13
13760 20 9
13761 22 1
13762 19 1
13763 19 1
13764 21 2
13765 29 9
13766 18 1
13767 29 1
13768 10 1
13769 12 13
13769 13 1
13769 14 8
13770 28 2
13771 34 1
13772 12 1
13772 29 1
13773 12 1
13774 29 1
13775 18 1
13776 3 1
13777 7 4
13777 8 8
13778 21 14
13778 22 11
13779 2 1
13779 10 1
13779 14 1
13779 15 1
13779 19 1
13779 21 1
13780 31 1
13781 19 1
13782 2 1
13783 26 5
13784 34 1
13785 2 1
13785 3 1
13785 28 2
13785 34 2
13786 34 1
13787 28 1
13788 18 2
13788 19 1
13789 18 5
13789 19 9
13789 20 2
13790 2 1
13791 4 5
13791 5 13
13791 38 13
13792 5 1
13792 34 1
13793 9 3
13793 10 3
13793 11 7
13794 26 1
13795 19 1
13795 20 1
13796 14 1
13797 2 1
13798 19 1
13799 3 1
13799 24 7
13799 31 2
13800 24 1
13800 29 2
13800 31 1
13801 3 1
13802 20 2
13803 38 1
13804 5 1
13805 18 1
13805 28 8
13806 5 1
13807 4 9
13807 5 25
13807 38 41
13808 29 1
13809 31 11
13810 19 1
13811 17 1
13811 18 1
13811 24 19
13812 14 1
13813 4 1
13814 18 1
13815 21 9
13815 22 4
13816 5 1
13817 5 1
13818 22 1
13819 34 1
13820 5 1
13820 22 1
13820 38 1
13821 29 3
13821 31 1
13821 38 1
13822 3 1
13822 12 1
13823 18 2
13823 19 4
13823 20 2
13824 2 5
13824 3 1
13824 29 1
13824 34 4
13825 3 1
13826 31 1
13827 34 1
13828 34 1
13829 29 4
13830 7 1
13831 5 1
13831 7 1
13832 16 1
13832 17 4
13833 18 7
13833 19 6
13833 20 2
13834 2 32
13834 3 38
13834 15 1
13834 25 1
13834 26 3
13834 34 56
13835 19 1
13835 21 1
13835 26 4
13835 34 1
13836 19 1
13837 19 1
13838 28 1
13839 31 1
13840 24 1
13840 29 1
13840 34 1
13841 30 1
13842 34 1
13843 5 1
13844 38 1
13845 38 1
13846 15 2
13846 16 1
13846 17 4
13846 29 1
13847 19 1
13848 15 1
13848 16 1
13848 17 3
13849 10 2
13849 11 1
13849 38 1
13850 38 1
13851 19 1
13852 19 1
13853 5 1
13854 18 1
13854 19 3
13854 20 2
13855 34 1
13856 3 1
13856 18 3
13856 19 3
13857 29 1
13858 18 2
13858 20 1
13859 3 1
13859 18 1
13859 22 1
13860 1 1
13860 2 15
13860 3 15
13860 5 1
13860 34 30
13861 26 2
13862 29 16
13862 30 1
13863 8 1
13864 29 1
13865 9 14
13865 10 17
13865 11 12
13865 12 1
13866 12 1
13867 34 1
13868 28 2
13868 31 18
13869 26 1
13870 21 20
13870 22 11
13871 2 1
13871 34 1
13872 8 1
13872 18 1
13873 34 1
13874 21 3
13875 1 1
13875 2 22
13875 3 15
13875 31 8
13875 34 18
13876 21 1
13877 31 1
13878 9 1
13878 10 1
13878 18 1
13878 34 1
13879 22 1
13880 1 1
13880 2 5
13880 3 11
13880 34 11
13881 29 2
13881 30 1
13882 2 1
13882 29 10
13882 30 2
13883 29 1
13884 5 1
13885 25 1
13885 26 1
13886 38 1
13887 34 1
13888 4 8
13888 5 24
13888 38 27
13889 14 1
13889 19 1
13889 38 1
13890 38 2
13891 3 1
13892 3 1
13893 3 1
13894 12 3
13895 22 1
13895 29 1
13896 2 1
13897 22 1
13898 24 4
13899 10 1
13899 12 1
13900 1 2
13900 2 40
13900 3 43
13900 34 60
13901 14 1
13902 34 1
13903 21 21
13903 22 12
13904 38 1
13905 21 5
13905 22 1
13906 34 1
13907 18 12
13907 19 10
13907 20 3
13908 31 5
13908 34 1
13909 34 1
13910 19 1
13910 24 14
13911 3 1
13912 2 1
13912 23 1
13912 24 11
13913 4 1
13913 8 1
13914 4 3
13914 5 8
13914 22 1
13914 38 2
13915 24 6
13916 34 1
13917 2 1
13918 2 28
13918 3 49
13918 34 59
13919 34 1
13920 1 2
13920 2 27
13920 3 36
13920 34 40
13921 7 4
13921 8 8
13921 16 1
13921 19 1
13921 22 1
13921 24 2
13921 34 1
13922 29 8
13923 19 1
13924 18 1
13925 5 4
13925 38 3
13926 22 1
13927 15 2
13928 31 4
13929 3 1
13929 26 1
13930 2 1
13930 34 1
13931 11 1
13931 18 20
13931 19 26
13931 20 13
13932 20 1
13933 5 1
13934 24 2
13934 25 1
13934 26 4
13934 29 11
13934 30 2
13935 20 1
13936 14 1
13937 31 3
13938 4 2
13938 5 1
13938 38 1
13939 34 1
13940 38 1
13941 34 1
13942 22 1
13942 24 8
13943 2 4
13943 3 4
13943 34 4
13944 3 1
13945 18 1
13946 12 1
13947 31 1
13948 4 1
13949 19 1
13950 29 1
13951 3 1
13951 12 26
13951 14 14
13952 24 1
13953 2 1
13953 3 1
13953 5 2
13953 18 1
13953 19 1
13953 24 1
13953 31 1
13953 34 3
13954 8 1
13955 12 1
13956 2 1
13956 3 3
13957 17 1
13957 34 1
13957 38 1
13958 15 9
13958 16 3
13958 17 3
13958 29 1
13959 3 1
13960 29 31
13961 5 1
13961 19 2
13961 34 2
13962 31 8
13963 26 1
13964 20 1
13965 2 5
13965 3 4
13965 24 13
13965 31 1
13965 34 10
13965 38 1
13966 24 6
13966 26 2
13967 26 1
13968 38 1
13969 28 1
13970 2 1
13970 5 1
13970 8 1
13970 19 1
13970 20 1
13970 21 1
13970 34 3
13970 38 1
13971 20 1
13972 21 18
13972 22 12
13972 38 1
13973 15 1
13973 17 1
13974 29 3
13975 3 1
13976 12 1
13976 38 1
13977 29 1
13978 10 1
13979 34 1
13980 15 1
13981 3 1
13982 19 1
13983 34 1
13984 5 1
13985 26 3
13986 38 1
13987 38 1
13988 34 1
13989 3 1
13989 15 1
13990 7 13
13990 8 15
13991 21 1
13992 2 1
13993 12 1
13993 25 2
13993 26 12
13994 1 2
13994 2 11
13994 3 18
13994 34 25
13995 18 21
13995 19 30
13995 20 10
13996 34 1
13997 7 4
13997 8 10
13997 9 1
13998 34 1
13999 8 1
14000 24 1
14001 18 1
14002 21 30
14002 22 19
14003 5 1
14004 31 1
14005 9 6
14005 10 4
14005 11 6
14006 15 2
14007 12 3
14007 14 1
14007 17 1
14007 18 6
14007 19 11
14007 20 6
14007 29 24
14007 30 2
14008 19 1
14009 5 1
14010 22 1
14011 14 1
14012 38 1
14013 5 1
14014 18 1
14014 19 2
14014 29 4
14015 22 1
14016 5 1
14017 4 7
14017 5 35
14017 22 1
14017 38 27
14018 28 2
14018 38 2
14019 4 5
14019 5 13
14019 38 17
14020 34 1
14021 29 2
14022 12 1
14023 38 1
14024 38 1
14025 34 1
14026 24 1
14027 15 6
14027 16 5
14027 17 5
14028 18 1
14029 2 1
14030 7 1
14031 7 1
14032 29 12
14032 30 1
14033 38 1
14034 2 1
14035 22 1
14035 34 1
14036 25 1
14036 26 4
14036 34 1
14037 2 6
14037 3 12
14037 34 18
14038 28 1
14039 28 1
14040 12 1
14040 29 24
14040 30 1
14040 34 1
14041 2 3
14041 3 3
14041 34 7
14042 29 5
14043 4 4
14043 5 15
14043 38 13
14044 38 1
14045 24 1
14046 9 10
14046 10 6
14046 11 12
14047 3 1
14047 25 1
14047 26 5
14048 8 1
14049 3 1
14050 24 1
14050 28 11
14051 3 1
14051 17 1
14051 31 4
14052 3 1
14052 7 10
14052 8 21
14053 24 36
14053 34 1
14054 12 1
14055 2 4
14055 3 9
14055 34 4
14056 18 36
14056 19 31
14056 20 7
14057 22 1
14058 2 1
14059 31 1
14060 31 16
14061 29 10
14062 24 1
14062 38 1
14063 28 3
14064 1 1
14064 2 29
14064 3 52
14064 5 1
14064 34 56
14065 2 1
14066 2 1
14067 24 12
14067 26 12
14068 2 2
14068 3 3
14068 34 1
14069 9 1
14070 19 1
14071 2 1
14072 9 1
14073 24 26
14074 29 1
14075 15 3
14075 16 4
14075 17 6
14076 2 2
14076 3 1
14076 5 3
14076 8 1
14076 17 1
14076 18 46
14076 19 36
14076 20 1
14076 29 1
14076 34 2
14076 38 3
14077 29 3
14078 7 1
14078 8 3
14078 23 1
14078 24 14
14079 19 1
14080 5 1
14080 34 1
14081 15 1
14081 18 1
14082 19 1
14083 5 1
14084 3 1
14085 31 1
14086 26 9
14087 21 1
14088 4 4
14088 5 5
14088 34 2
14088 38 6
14089 9 17
14089 10 25
14089 11 12
14090 29 23
14090 30 2
14091 4 6
14091 5 29
14091 38 37
14092 29 28
14092 30 3
14093 25 1
14093 26 1
14093 31 8
14094 24 1
14095 18 10
14095 19 9
14095 20 4
14096 21 2
14096 22 1
14097 4 6
14097 5 22
14097 8 1
14097 38 51
14098 3 1
14098 18 1
14098 19 2
14098 20 1
14098 29 1
14099 25 1
14099 26 1
14100 3 1
14101 17 1
14102 3 1
14103 12 1
14104 11 1
14104 12 1
14105 34 1
14106 31 1
14107 1 1
14107 2 20
14107 3 33
14107 28 1
14107 34 46
14108 34 1
14109 11 1
14110 21 15
14110 22 5
14111 20 1
14111 24 1
14111 26 9
14112 1 1
14112 2 13
14112 3 13
14112 24 16
14112 31 5
14112 34 9
14113 3 1
14113 31 1
14114 5 1
14115 4 10
14115 5 43
14115 29 2
14115 38 56
14116 34 1
14117 2 1
14118 20 1
14119 2 1
14120 9 1
14120 10 1
14120 11 3
14121 18 1
14121 29 26
14122 12 1
14123 2 1
14124 1 1
14124 2 8
14124 3 16
14124 34 16
14125 4 1
14126 31 1
14127 34 1
14128 10 1
14129 4 13
14129 5 56
14129 38 48
14130 10 1
14130 18 2
14130 24 1
14130 26 1
14130 31 1
14130 34 1
14130 38 1
14131 19 1
14132 19 1
14132 31 5
14133 21 1
14134 24 3
14134 29 5
14134 30 1
14135 12 5
14135 14 1
14136 7 1
14137 28 1
14138 20 1
14139 15 7
14139 17 2
14140 25 2
14140 26 10
14141 29 2
14142 29 1
14143 3 1
14144 24 14
14145 2 1
14146 11 1
14147 12 10
14147 14 6
14148 3 1
14149 4 1
14149 5 8
14149 28 2
14149 29 5
14149 38 13
14150 21 1
14151 34 1
14152 38 1
14153 24 1
14154 26 3
14155 5 1
14155 26 1
14155 34 1
14155 38 1
14156 2 1
14156 14 1
14157 25 2
14157 26 5
14157 29 14
14157 30 1
14158 5 6
14158 38 9
14159 24 6
14160 4 1
14160 5 12
14160 38 14
14161 29 1
14162 12 26
14162 13 2
14162 14 9
14163 3 1
14163 9 3
14163 10 2
14163 11 4
14163 24 2
14163 29 1
14163 34 1
14164 3 1
14165 3 1
14166 24 1
14167 12 1
14167 29 1
14168 31 1
14169 2 1
14169 3 1
14169 14 1
14169 25 1
14169 29 3
14170 10 1
14171 26 3
14171 29 1
14172 31 1
14173 4 1
14173 7 1
14174 3 1
14175 5 2
14175 10 1
14176 2 1
14176 3 4
14176 34 2
14177 4 18
14177 5 70
14177 38 70
14178 28 5
14179 20 1
14180 3 1
14181 5 1
14182 34 1
14183 3 1
14184 8 1
14185 9 7
14185 10 10
14185 11 5
14186 5 1
14187 16 1
14187 29 1
14187 31 6
14187 34 1
14188 15 1
14188 16 1
14188 17 1
14189 25 2
14189 26 16
14190 12 1
14191 24 1
14192 22 1
14193 4 4
14193 5 30
14193 38 27
14194 18 3
14194 20 1
14195 28 4
14195 34 1
14196 2 1
14197 24 3
14198 15 3
14198 16 1
14198 17 3
14199 19 1
14200 38 1
14201 5 2
14201 15 17
14201 16 4
14201 17 9
14202 15 2
14202 16 1
14202 17 3
14203 5 8
14203 38 9
14204 20 1
14205 31 1
14206 2 1
14207 28 1
14208 2 1
14208 3 1
14208 34 3
14209 38 1
14210 14 1
14211 4 1
14211 5 18
14211 12 34
14211 13 1
14211 14 18
14211 38 21
14212 5 1
14212 23 1
14212 24 3
14213 21 1
14214 2 4
14214 3 3
14215 1 1
14215 22 1
14216 5 1
14217 12 19
14217 13 1
14217 14 18
14217 34 1
14218 4 3
14218 5 10
14218 38 18
14219 29 1
14220 8 1
14221 28 5
14222 12 4
14222 13 1
14222 14 9
14223 18 3
14223 19 6
14223 20 2
14224 24 1
14225 5 2
14226 7 1
14226 8 1
14226 11 1
14227 29 1
14228 28 1
14229 2 1
14230 20 1
14231 24 1
14232 4 6
14232 5 28
14232 8 1
14232 38 41
14233 5 1
14233 8 1
14233 21 7
14233 22 4
14234 19 1
14235 30 1
14236 24 1
14237 18 7
14237 19 5
14237 20 1
14238 3 1
14239 22 2
14240 15 1
14241 3 1
14241 34 1
14242 14 1
14243 1 2
14243 2 9
14243 3 18
14243 34 28
14244 2 1
14245 21 1
14246 9 1
14246 24 3
14247 28 8
14248 28 5
14249 21 2
14250 25 1
14250 26 5
14251 31 1
14252 1 1
14252 2 8
14252 3 9
14252 24 1
14252 34 17
14253 10 1
14254 1 1
14254 2 12
14254 3 30
14254 34 41
14254 38 1
14255 11 1
14256 24 1
14257 38 1
14258 11 1
14259 5 1
14260 4 1
14260 5 14
14260 38 10
14261 3 1
14262 4 5
14262 5 17
14262 22 1
14262 38 22
14263 5 1
14264 5 6
14264 38 8
14265 34 1
14266 12 2
14266 16 1
14267 31 1
14267 38 1
14268 24 1
14269 2 1
14269 4 1
14270 3 1
14270 34 1
14271 4 1
14271 29 17
14271 30 3
14271 34 1
14272 5 1
14273 21 4
14274 15 7
14274 16 9
14274 17 5
14274 18 1
14274 38 2
14275 3 1
14275 12 4
14275 18 1
14276 4 4
14276 5 11
14276 38 27
14277 22 1
14278 18 17
14278 19 16
14278 20 1
14279 26 1
14280 3 1
14280 5 9
14280 21 18
14280 22 19
14280 38 7
14281 18 19
14281 19 23
14281 20 11
14281 34 1
14282 17 1
14283 2 1
14284 31 3
14285 34 1
14286 25 1
14286 26 7
14287 29 1
14288 5 1
14288 29 14
14289 7 4
14289 8 7
14290 21 9
14290 22 6
14291 8 2
14292 38 2
14293 12 1
14294 28 3
14295 2 1
14295 3 2
14295 31 1
14295 34 4
14296 2 1
14297 19 1
14298 38 1
14299 21 11
14299 22 13
14300 10 1
14301 18 5
14301 19 11
14301 20 2
14302 8 1
14303 9 1
14303 10 3
14303 11 3
14303 34 1
14304 8 1
14304 18 3
14304 19 8
14304 20 1
14305 3 1
14306 15 6
14306 16 3
14306 17 5
14307 5 1
14307 29 2
14308 3 1
14308 38 1
14309 1 1
14309 2 11
14309 3 25
14309 34 26
14310 2 1
14311 5 2
14311 38 8
14312 21 2
14312 22 1
14313 26 2
14314 31 2
14315 10 1
14316 31 6
14317 9 2
14317 10 3
14317 11 3
14317 19 1
14318 24 1
14319 26 1
14320 29 7
14321 3 1
14322 3 1
14323 2 7
14323 3 10
14323 34 11
14324 24 1
14325 24 4
14326 34 1
14327 3 1
14328 18 1
14328 19 1
14329 14 1
14330 28 1
14331 21 1
14332 1 1
14332 2 11
14332 3 30
14332 34 43
14333 8 1
14334 10 1
14335 2 1
14335 3 1
14335 18 27
14335 19 28
14335 20 6
14336 26 1
14337 31 1
14338 28 12
14339 21 16
14339 22 13
14339 29 1
14340 24 4
14341 29 3
14342 28 1
14343 24 22
14343 34 1
14344 34 1
14345 2 4
14345 3 9
14345 34 8
14346 28 1
14347 8 1
14347 12 15
14347 14 7
14347 29 1
14347 34 1
14347 38 1
14348 29 1
14349 12 1
14350 3 1
14350 5 1
14350 7 1
14350 8 4
14350 10 1
14351 14 2
14351 28 1
14352 21 1
14352 22 2
14353 8 1
14354 2 2
14354 3 4
14354 5 1
14354 34 9
14355 3 1
14356 12 1
14357 8 1
14358 4 2
14358 5 4
14358 38 4
14359 28 4
14360 19 1
14361 34 1
14362 12 1
14362 29 3
14363 10 1
14364 11 1
14364 21 1
14364 31 4
14365 29 2
14366 28 1
14366 38 1
14367 2 1
14367 34 2
14368 15 5
14368 16 2
14368 17 1
14369 16 1
14370 22 1
14371 5 1
14372 4 1
14372 5 2
14372 38 1
14373 29 6
14373 31 1
14374 2 1
14374 3 1
14374 25 2
14374 26 2
14374 34 3
14375 14 1
14376 28 2
14377 5 1
14378 2 1
14378 3 2
14378 7 1
14378 17 1
14378 21 1
14378 24 1
14379 28 4
14379 38 1
14380 38 1
14381 12 1
14382 24 1
14383 5 1
14383 26 3
14383 29 1
14384 29 4
14385 29 1
14386 15 1
14386 17 1
14387 5 1
14388 18 1
14389 24 1
14390 21 1
14391 1 1
14391 2 1
14391 3 2
14391 19 1
14391 29 23
14391 30 2
14391 34 3
14392 5 1
14393 18 5
14393 19 7
14393 20 2
14394 29 1
14395 29 1
14396 5 1
14396 26 1
14396 29 5
14397 11 1
14398 24 6
14398 29 2
14398 30 1
14399 20 1
14400 4 3
14400 5 27
14400 38 29
14401 4 2
14401 5 10
14401 38 9
14402 34 1
14403 22 1
14404 2 1
14405 9 1
14406 15 1
14406 28 1
14407 2 18
14407 3 46
14407 34 57
14408 34 12
14409 2 1
14410 24 1
14411 18 12
14411 19 16
14411 20 2
14412 12 1
14413 24 1
14414 24 1
14415 24 3
14416 4 4
14416 5 16
14416 24 9
14416 38 17
14417 38 1
14418 31 2
14419 38 2
14420 4 2
14420 5 5
14420 9 2
14420 38 2
14421 15 1
14421 31 7
14422 2 2
14422 34 3
14423 24 9
14424 5 1
14425 2 1
14426 2 1
14426 12 1
14427 29 1
14428 4 1
14428 5 13
14428 31 2
14428 38 7
14429 21 4
14429 22 3
14430 17 1
14430 23 1
14430 24 18
14430 34 1
14431 2 1
14432 31 4
14433 2 10
14433 3 15
14433 24 1
14433 34 19
14434 21 1
14435 12 1
14435 19 1
14435 22 1
14435 28 1
14435 34 1
14436 4 1
14436 22 1
14436 31 1
14437 22 1
14438 24 7
14439 3 1
14440 24 1
14441 18 1
14442 8 2
14443 21 12
14443 22 15
14444 2 1
14444 24 1
14445 34 1
14446 2 4
14446 3 13
14446 5 1
14446 31 3
14446 34 14
14447 20 1
14448 24 2
14449 34 1
14450 4 1
14450 5 1
14450 38 1
14451 38 1
14452 3 1
14452 5 16
14452 38 24
14453 19 1
14454 5 2
14454 38 5
14455 29 3
14456 2 1
14456 3 5
14456 24 7
14456 34 3
14457 9 1
14457 31 10
14458 12 1
14459 34 2
14460 23 1
14461 9 2
14461 10 1
14461 11 1
14462 28 3
14463 21 1
14464 24 1
14465 2 4
14465 3 8
14465 12 1
14465 34 9
14466 38 1
14467 2 1
14467 3 3
14467 34 1
14468 20 1
14469 3 1
14470 1 1
14470 2 2
14470 3 11
14470 34 13
14471 24 1
14471 29 4
14471 30 2
14471 34 1
14472 28 1
14473 34 1
14474 3 1
14475 2 1
14475 3 1
14476 12 1
14477 9 1
14477 24 10
14477 38 1
14478 2 12
14478 3 13
14478 24 1
14478 34 25
14479 2 1
14480 18 7
14480 19 6
14480 20 1
14481 3 1
14482 3 1
14482 21 22
14482 22 9
14483 7 2
14483 8 2
14483 18 1
14483 21 2
14483 22 1
14484 7 9
14484 8 20
14485 29 1
14486 4 1
14487 22 1
14488 29 1
14489 9 4
14489 10 2
14489 11 4
14489 31 2
14490 21 12
14490 22 4
14490 29 1
14491 5 1
14492 19 1
14493 21 6
14493 22 2
14494 3 1
14495 7 8
14495 8 14
14495 28 1
14496 5 1
14497 16 1
14498 9 21
14498 10 40
14498 11 46
14499 5 1
14500 29 6
14500 30 1
14501 20 1
14502 29 2
14503 34 1
14504 29 1
14505 16 1
14505 17 1
14506 38 1
14507 31 7
14508 24 1
14509 7 13
14509 8 29
14510 3 1
14510 31 17
14510 33 1
14510 38 2
14511 38 1
14512 5 1
14513 2 1
14513 21 1
14514 22 1
14515 21 1
14515 28 1
14516 8 1
14517 29 1
14518 18 4
14518 19 6
14518 20 3
14519 2 1
14519 3 1
14519 38 2
14520 2 6
14520 3 4
14520 24 1
14520 29 11
14520 30 1
14520 34 3
14521 21 3
14521 22 2
14522 9 1
14522 18 1
14522 38 2
14523 14 3
14523 21 22
14523 22 12
14524 2 1
14524 3 3
14524 34 5
14525 2 1
14525 9 2
14525 10 2
14525 11 3
14525 29 1
14525 31 1
14526 2 1
14527 31 3
14527 34 1
14528 10 1
14529 19 1
14529 24 1
14530 4 2
14530 5 3
14530 38 1
14531 38 1
14532 5 1
14533 22 1
14533 38 1
14534 28 6
14535 12 21
14535 14 18
14536 3 1
14537 31 9
14538 34 1
14539 8 1
14540 29 1
14541 3 1
14541 31 11
14542 26 1
14542 28 2
14543 14 1
14544 21 1
14545 19 1
14546 29 11
14547 24 1
14548 3 1
14549 12 1
14549 24 8
14550 29 1
14551 2 2
14551 3 3
14551 29 30
14551 30 1
14551 34 8
14552 17 1
14552 22 1
14553 7 1
14553 8 1
14554 29 1
14555 22 1
14556 19 4
14556 20 1
14557 5 1
14558 5 1
14559 24 2
14560 2 1
14561 24 8
14562 31 5
14563 29 10
14564 5 1
14564 22 1
14564 24 10
14565 8 1
14566 3 1
14566 26 1
14567 3 1
14568 28 4
14569 7 5
14569 8 7
14570 15 1
14571 12 1
14572 29 5
14573 2 7
14573 3 29
14573 34 58
14574 26 1
14575 38 1
14576 18 1
14577 28 1
14578 20 1
14579 3 1
14579 16 1
14580 19 1
14581 21 1
14582 21 1
14583 4 1
14584 3 1
14585 8 1
14586 3 1
14587 3 2
14587 9 2
14587 10 1
14587 18 1
14588 18 5
14588 19 2
14589 29 37
14589 30 4
14590 3 1
14591 2 12
14591 3 17
14591 8 2
14591 34 14
14592 3 1
14592 15 4
14592 16 3
14592 17 1
14593 12 5
14593 14 3
14593 16 1
14594 38 1
14595 34 1
14596 3 1
14597 2 4
14597 3 15
14597 21 21
14597 22 10
14597 34 19
14598 34 1
14599 28 1
14600 15 6
14600 16 2
14600 17 4
14601 18 1
14602 21 1
14602 24 1
14603 28 1
14604 7 4
14604 8 6
14605 2 1
14606 24 1
14607 28 1
14608 28 2
14609 24 1
14609 26 2
14609 28 5
14610 24 3
14611 19 1
14611 24 1
14612 12 5
14612 14 4
14612 16 1
14613 29 1
14614 2 4
14614 3 7
14614 34 12
14615 24 1
14616 21 1
14617 20 1
14617 22 1
14618 24 2
14619 17 1
14620 31 4
14621 2 1
14621 16 2
14622 29 22
14622 30 1
14623 28 1
14624 1 1
14624 2 10
14624 3 28
14624 34 34
14625 17 1
14626 23 1
14626 24 4
14627 24 6
14628 10 1
14628 18 28
14628 19 23
14628 20 9
14629 22 1
14630 20 1
14631 31 11
14632 18 1
14633 34 1
14634 2 1
14634 19 1
14634 20 2
14635 5 1
14636 10 1
14637 24 1
14638 31 4
14639 29 1
14639 34 1
14640 2 3
14640 3 6
14640 24 9
14640 26 3
14640 29 1
14640 34 2
14641 7 8
14641 8 16
14641 15 13
14641 16 10
14641 17 8
14641 24 1
14641 38 1
14642 12 5
14642 14 2
14643 25 1
14643 26 5
14644 5 4
14644 38 2
14645 3 1
14645 19 1
14646 2 12
14646 3 7
14646 34 15
14647 28 5
14648 31 5
14649 24 10
14650 2 1
14651 29 1
14652 18 2
14652 19 4
14652 20 1
14653 2 4
14653 3 33
14653 34 37
14654 18 1
14654 19 1
14654 21 3
14655 38 1
14656 5 1
14656 28 1
14657 5 1
14658 5 1
14658 22 1
14658 24 4
14658 34 1
14659 34 1
14660 2 4
14660 3 3
14660 24 1
14660 34 4
14661 29 1
14662 2 1
14662 3 1
14662 29 1
14662 34 3
14663 38 1
14664 17 1
14665 3 1
14665 29 1
14666 5 1
14666 12 1
14667 7 14
14667 8 42
14668 28 3
14669 21 1
14670 22 1
14671 3 1
14671 24 13
14672 3 1
14673 20 1
14674 9 10
14674 10 20
14674 11 11
14674 38 1
14675 5 1
14676 4 1
14677 25 2
14677 26 6
14678 18 1
14679 38 1
14680 7 1
14680 8 1
14680 18 2
14681 12 4
14681 17 1
14682 10 1
14682 11 1
14682 26 1
14683 5 1
14683 28 2
14684 24 2
14685 15 6
14685 16 4
14685 17 4
14685 34 2
14686 34 1
14687 4 3
14687 5 5
14687 38 13
14688 5 1
14689 28 1
14690 28 1
14690 31 2
14691 29 11
14691 30 1
14692 15 1
14693 17 1
14694 28 1
14695 18 1
14695 19 5
14695 20 3
14696 7 5
14696 8 5
14696 19 1
14697 31 12
14698 29 2
14699 3 1
14699 10 1
14699 26 1
14699 29 5
14699 30 1
14699 38 3
14700 9 10
14700 10 6
14700 11 2
14700 15 3
14700 16 1
14701 12 1
14701 19 3
14701 20 1
14702 15 14
14702 16 5
14702 17 7
14703 7 10
14703 8 11
14704 18 1
14705 31 3
14706 26 2
14706 31 1
14707 31 11
14708 1 1
14708 2 3
14708 3 7
14708 34 3
14709 19 1
14710 2 1
14711 29 1
14711 34 1
14712 3 1
14713 12 1
14713 28 8
14714 10 1
14715 29 1
14716 2 12
14716 3 25
14716 34 18
14717 2 1
14718 2 2
14718 3 9
14718 24 1
14718 28 9
14718 34 12
14719 2 15
14719 3 17
14719 18 1
14719 34 24
14720 5 1
14720 21 1
14720 22 6
14720 29 1
14720 34 1
14721 26 1
14722 9 11
14722 10 15
14722 11 6
14722 24 1
14723 4 1
14723 5 9
14723 38 9
14724 25 1
14724 26 1
14725 3 1
14725 5 1
14725 15 3
14725 16 1
14725 17 6
14725 29 1
14726 28 4
14727 9 1
14727 19 1
14728 5 1
14728 19 1
14728 24 1
14729 17 1
14730 18 1
14731 5 2
14732 11 1
14732 31 3
14733 31 4
14734 31 3
14735 8 1
14735 15 7
14735 16 11
14735 17 3
14736 29 19
14736 30 3
14737 34 1
14738 21 1
14738 22 2
14739 3 1
14739 29 14
14740 4 2
14740 5 10
14740 38 4
14741 2 4
14741 3 1
14741 34 5
14742 21 1
14743 28 1
14744 4 1
14745 24 4
14746 38 1
14747 9 1
14748 16 1
14749 19 1
14750 3 1
14750 29 5
14751 23 1
14751 24 17
14752 2 7
14752 3 12
14752 34 8
14753 3 2
14753 8 1
14753 13 1
14753 31 1
14754 22 1
14755 18 43
14755 19 43
14755 20 17
14756 24 14
14757 29 11
14758 31 1
14759 4 2
14759 5 9
14759 38 8
14760 3 1
14760 34 1
14761 5 1
14762 2 1
14762 15 1
14762 17 1
14763 9 1
14763 10 2
14764 3 1
14765 11 1
14766 24 11
14767 21 1
14768 3 4
14768 34 2
14769 24 3
14769 28 1
14770 2 1
14770 31 6
14771 3 1
14771 29 15
14771 34 1
14772 7 4
14772 8 4
14773 17 1
14774 24 2
14774 31 11
14775 21 3
14776 3 1
14776 24 6
14777 1 1
14777 2 4
14777 3 15
14777 26 4
14777 34 10
14778 7 1
14779 2 1
14779 3 1
14779 8 1
14779 34 1
14780 31 1
14781 5 3
14781 38 4
14782 2 19
14782 3 45
14782 34 45
14783 18 2
14783 19 1
14784 12 15
14784 13 1
14784 14 7
14785 26 1
14786 10 1
14786 18 2
14786 19 1
14787 2 19
14787 3 29
14787 34 37
14788 34 1
14789 4 11
14789 5 32
14789 38 37
14790 29 1
14791 19 1
14792 26 1
14793 4 1
14794 38 1
14795 29 16
14795 30 3
14796 8 1
14797 18 1
14798 26 1
14799 19 1
14800 4 12
14800 5 25
14800 18 1
14800 28 2
14800 29 5
14800 30 3
14800 38 37
14801 18 1
14802 31 1
14803 4 1
14804 18 2
14804 19 3
14804 20 1
14805 7 1
14806 2 1
14806 3 7
14806 34 3
14808 15 1
14809 21 2
14810 29 1
14810 30 1
14811 15 2
14811 16 2
14811 17 4
14812 5 2
14813 2 7
14813 3 4
14813 34 3
14814 5 1
14815 14 1
14815 18 1
14815 19 3
14815 20 1
14815 28 1
14816 28 1
14816 29 8
14816 30 1
14817 8 1
14818 4 1
14819 7 1
14819 8 5
14820 3 1
14820 29 1
14820 38 1
14821 12 1
14821 24 5
14821 34 2
14822 1 1
14822 2 2
14822 3 5
14822 22 1
14822 34 4
14823 29 1
14824 5 1
14825 9 1
14826 4 1
14827 29 4
14828 29 7
14828 30 1
14829 15 4
14829 16 1
14829 17 1
14830 8 1
14831 29 4
14832 3 1
14833 29 2
14834 14 1
14834 24 16
14835 12 23
14835 14 12
14836 18 1
14836 19 1
14836 20 1
14837 34 1
14838 29 1
14839 12 3
14839 14 1
14840 3 1
14841 9 29
14841 10 45
14841 11 34
14842 25 1
14843 34 1
14844 24 1
14845 12 1
14845 38 1
14846 2 2
14846 24 2
14846 34 2
14847 34 1
14848 18 45
14848 19 28
14848 20 25
14849 24 1
14850 2 1
14851 2 15
14851 3 11
14851 29 37
14851 30 2
14851 34 14
14852 8 1
14852 38 1
14853 34 1
14854 24 9
14855 2 1
14856 2 10
14856 3 13
14856 34 25
14857 38 1
14858 20 1
14859 12 9
14859 14 3
14859 21 3
14859 22 2
14860 34 1
14861 21 1
14861 24 1
14861 29 1
14862 7 1
14862 10 1
14862 11 2
14863 29 1
14864 2 1
14864 7 2
14864 8 9
14865 38 1
14866 2 9
14866 3 42
14866 5 1
14866 34 87
14867 16 1
14868 4 3
14868 5 14
14868 38 20
14869 24 6
14870 3 1
14870 21 1
14870 29 2
14870 38 1
14871 26 2
14872 3 1
14873 18 1
14874 15 1
14875 29 2
14876 29 14
14876 30 2
14877 11 1
14878 29 14
14878 30 1
14879 17 1
14879 18 1
14879 19 1
14879 29 1
14880 19 1
14880 31 1
14881 24 17
14882 20 1
14883 29 1
14884 4 1
14885 2 1
14886 2 1
14886 12 1
14886 21 1
14887 28 1
14888 3 1
14888 9 1
14888 10 1
14888 11 3
14889 38 1
14890 3 1
14890 24 6
14891 34 1
14892 3 1
14893 18 1
14894 34 1
14895 2 13
14895 3 13
14895 34 10
14896 25 3
14896 26 5
14897 24 1
14898 34 1
14899 19 2
14899 24 4
14899 28 5
14899 34 1
14900 24 1
14901 21 1
14902 5 1
14902 18 1
14902 19 1
14902 38 2
14903 14 1
14904 26 12
14905 28 5
14906 2 17
14906 3 24
14906 16 1
14906 34 31
14907 23 2
14907 24 8
14907 25 1
14907 26 3
14908 4 1
14909 20 1
14910 18 1
14911 2 1
14911 22 1
14912 38 1
14913 3 1
14914 29 26
14914 30 1
14914 34 1
14915 4 6
14915 5 41
14915 38 52
14916 29 1
14917 7 1
14918 2 22
14918 3 24
14918 14 1
14918 19 1
14918 24 2
14918 34 31
14919 2 7
14919 3 10
14919 22 1
14919 34 15
14920 2 1
14921 21 17
14921 22 8
14922 3 1
14923 5 1
14923 26 1
14923 29 1
14923 34 2
14925 38 1
14926 24 1
14927 34 1
14928 18 1
14928 27 1
14928 28 7
14929 12 1
14930 31 1
14931 22 1
14932 7 2
14932 8 3
14933 28 4
14934 26 1
14935 34 1
14936 15 1
14937 21 1
14938 28 1
14939 3 1
14940 24 1
14941 3 1
14942 12 1
14943 14 1
14944 28 3
14945 24 1
14946 22 1
14946 31 1
14947 19 1
14949 3 1
14949 8 1
14949 24 1
14950 28 1
14951 4 2
14951 5 2
14951 38 4
14952 7 5
14952 8 12
14952 19 1
14953 18 1
14954 5 1
14954 9 1
14954 24 2
14955 14 1
14956 28 1
14957 21 16
14957 22 18
14958 10 1
14959 7 2
14959 8 1
14960 26 1
14961 17 3
14962 38 1
14963 14 1
14963 29 1
14964 3 1
14964 7 1
14964 8 2
14964 15 4
14964 16 3
14964 17 6
14965 34 1
14966 10 1
14967 3 1
14968 2 1
14969 1 1
14969 2 10
14969 3 18
14969 29 1
14969 34 8
14970 24 15
14971 2 3
14971 3 6
14971 34 2
14972 10 2
14972 11 1
14972 19 1
14973 3 1
14974 15 1
14975 4 2
14975 5 3
14975 38 8
14976 38 1
14977 2 2
14977 3 1
14977 34 5
14978 5 1
14979 3 1
14979 5 1
14979 34 4
14980 3 1
14980 24 13
14981 29 1
14982 3 1
14983 3 1
14984 38 1
14985 24 1
14986 34 1
14987 22 1
14988 34 1
14989 17 1
14990 17 2
14991 31 1
14992 34 1
14993 15 3
14993 16 5
14993 17 4
14994 2 1
14994 34 1
14995 23 1
14995 24 5
14996 25 6
14996 26 16
14997 15 12
14997 16 11
14997 17 13
14998 5 1
14999 24 7
15000 19 4
15001 28 1
15002 34 1
15003 10 1
15004 24 7
15005 24 5
15006 23 1
15006 24 5
15007 24 25
15008 2 2
15008 34 2
15009 31 1
15010 28 1
15011 28 3
15012 16 1
15013 1 1
15014 34 1
15015 5 1
15016 34 1
15016 38 1
15017 34 1
15018 5 1
15019 3 1
15020 28 1
15021 29 2
15022 2 4
15022 3 3
15022 15 1
15022 34 6
15023 29 1
15024 34 1
15025 9 20
15025 10 26
15025 11 23
15026 18 1
15027 2 1
15028 29 1
15029 29 4
15029 34 1
15029 38 1
15030 38 1
15031 31 2
15032 19 1
15033 16 1
15033 31 1
15033 34 1
15034 9 1
15035 24 2
15036 9 1
15037 5 1
15037 23 1
15037 24 22
15038 1 1
15038 2 17
15038 3 18
15038 34 26
15039 2 1
15039 7 1
15040 31 12
15041 21 1
15042 12 1
15043 12 9
15043 14 5
15043 18 6
15043 19 4
15043 20 7
15044 34 1
15045 38 1
15046 5 1
15047 18 1
15047 28 2
15047 31 5
15047 34 2
15048 4 1
15048 5 18
15048 17 1
15048 38 12
15049 2 2
15049 3 13
15049 5 1
15049 34 14
15050 4 3
15050 5 26
15050 38 38
15051 34 1
15052 38 1
15053 24 1
15054 24 1
15055 18 4
15056 11 1
15057 34 1
15058 3 4
15058 5 2
15058 34 9
15058 38 2
15059 29 2
15060 5 1
15061 34 1
15062 19 1
15063 3 1
15064 18 1
15065 5 1
15066 3 1
15067 31 4
15068 2 2
15068 3 2
15068 29 8
15068 34 1
15069 18 7
15069 19 16
15069 20 5
15070 24 2
15071 19 1
15072 29 9
15072 30 1
15073 34 1
15074 5 1
15075 24 1
15076 18 1
15077 12 1
15077 21 1
15077 24 1
15078 3 1
15078 23 1
15078 24 13
15079 3 1
15080 31 2
15081 15 2
15081 16 1
15081 17 1
15081 18 1
15081 19 1
15081 38 1
15082 2 1
15083 9 13
15083 10 19
15083 11 8
15084 38 1
15085 15 1
15086 26 1
15086 31 1
15087 5 5
15087 38 6
15088 21 1
15088 22 1
15089 4 6
15089 5 14
15089 38 15
15090 24 6
15091 31 3
15092 19 1
15093 31 7
15094 12 2
15095 18 3
15095 19 3
15096 2 1
15096 28 3
15097 2 2
15097 3 4
15097 34 2
15098 21 1
15098 31 8
15099 5 1
15100 5 1
15101 29 1
15102 4 1
15102 5 5
15102 38 6
15103 29 3
15104 12 1
15105 38 1
15106 29 1
15107 29 1
15107 30 1
15108 28 2
15109 18 1
15110 3 1
15111 2 1
15112 21 1
15112 24 4
15113 16 1
15114 19 1
15115 12 1
15116 18 1
15117 2 1
15118 5 1
15119 2 1
15120 4 2
15120 5 13
15120 38 9
15121 19 5
15121 20 4
15122 21 5
15122 24 1
15123 21 1
15123 29 1
15124 2 2
15124 3 6
15124 34 5
15125 34 1
15126 11 1
15127 29 1
15128 9 1
15128 10 1
15128 15 1
15128 21 2
15128 34 1
15129 34 1
15130 24 5
15131 8 1
15132 12 1
15133 3 1
15133 31 6
15134 2 4
15134 3 4
15134 34 10
15135 28 3
15136 18 1
15137 24 10
15138 4 12
15138 5 51
15138 38 40
15139 9 1
15139 11 3
15140 38 1
15141 28 4
15142 2 1
15143 24 1
15144 34 1
15145 24 11
15146 29 1
15147 34 1
15148 7 4
15148 8 1
15148 10 1
15148 12 1
15149 5 4
15149 38 3
15150 29 1
15151 5 1
15151 38 1
15152 10 1
15153 38 1
15154 21 9
15154 22 3
15154 24 1
15155 3 1
15155 26 2
15156 12 1
15156 25 1
15156 34 1
15157 9 5
15157 10 5
15157 11 2
15158 2 1
15159 22 1
15160 2 4
15160 3 2
15160 34 12
15161 26 4
15161 34 1
15162 28 1
15163 24 11
15163 29 1
15164 29 1
15165 3 1
15165 4 9
15165 5 19
15165 29 1
15165 38 29
15166 24 7
15167 5 1
15167 15 10
15167 16 11
15167 17 12
15167 29 6
15168 3 1
15168 5 1
15169 14 1
15170 38 1
15171 7 1
15171 8 2
15172 5 1
15173 19 1
15173 34 1
15174 7 1
15175 5 1
15176 10 1
15177 24 4
15178 34 1
15179 9 1
15180 29 5
15181 38 1
15182 29 1
15183 24 1
15184 10 1
15184 12 1
15185 4 1
15185 7 1
15186 18 1
15187 28 1
15188 34 1
15189 2 2
15189 3 10
15189 31 6
15189 34 5
15190 24 7
15191 2 6
15191 3 7
15191 9 1
15191 24 2
15191 28 1
15191 34 9
15192 18 2
15192 19 2
15193 10 1
15193 12 1
15194 3 1
15194 24 1
15194 29 2
15195 3 1
15196 29 44
15196 30 1
15197 29 1
15198 4 9
15198 5 30
15198 38 39
15199 5 1
15200 2 7
15200 3 16
15200 34 15
15201 21 1
15201 22 1
15202 3 1
15203 12 18
15203 13 1
15203 14 14
15203 15 7
15203 16 6
15203 17 5
15204 10 1
15205 38 1
15206 5 1
15207 24 1
15208 5 2
15209 2 1
15209 29 14
15209 30 1
15210 3 2
15210 24 3
15210 28 2
15211 21 5
15211 22 5
15212 24 4
15213 24 1
15214 34 1
15215 2 6
15215 3 1
15215 26 6
15215 31 1
15215 34 2
15216 16 1
15217 20 1
15218 22 1
15218 24 8
15218 29 1
15219 3 1
15219 12 1
15219 29 9
15219 34 1
15220 26 4
15221 25 1
15221 26 4
15222 29 9
15222 30 2
15223 18 4
15223 19 1
15223 20 1
15224 12 1
15224 28 1
15225 4 4
15225 5 4
15225 38 6
15226 31 14
15227 8 1
15228 21 1
15228 29 4
15229 4 3
15229 5 7
15229 38 9
15230 2 6
15230 3 33
15230 28 1
15230 34 44
15230 38 1
15231 24 1
15232 38 1
15233 5 1
15234 4 1
15234 5 11
15234 38 8
15235 24 1
15236 24 1
15237 5 1
15238 9 3
15238 10 7
15238 11 4
15239 1 1
15239 2 4
15239 3 2
15239 34 4
15240 24 4
15241 24 1
15242 5 1
15242 29 1
15243 22 1
15244 5 1
15245 2 4
15245 3 11
15245 34 18
15246 18 1
15247 5 1
15247 12 1
15247 13 1
15247 14 1
15248 2 5
15248 3 5
15248 5 1
15248 34 6
15249 24 2
15250 31 9
15251 5 1
15251 38 6
15252 12 1
15253 4 1
15253 5 6
15253 38 7
15254 4 1
15254 5 10
15254 38 15
15255 2 6
15255 3 6
15255 34 5
15256 29 3
15257 24 1
15258 20 1
15259 24 5
15260 31 5
15261 31 2
15262 20 1
15263 17 1
15264 9 10
15264 10 17
15264 11 12
15264 29 1
15265 4 5
15265 5 23
15265 38 27
15266 10 1
15267 29 5
15268 8 1
15269 31 3
15270 31 2
15271 2 4
15271 3 9
15271 34 4
15272 18 1
15273 10 1
15274 38 1
15275 10 1
15276 18 1
15276 31 1
15277 5 1
15278 18 11
15278 19 10
15278 20 4
15278 22 1
15278 29 1
15279 5 1
15279 7 1
15279 23 1
15279 24 7
15280 29 1
15281 16 1
15282 34 1
15283 24 1
15284 20 1
15285 8 1
15286 8 1
15286 16 1
15286 21 4
15286 22 2
15287 34 1
15288 24 12
15288 38 1
15289 5 1
15289 7 5
15289 8 18
15290 5 1
15291 9 1
15292 2 22
15292 3 45
15292 34 41
15293 24 9
15294 2 1
15295 5 1
15296 19 1
15297 25 1
15297 26 3
15298 12 1
15298 22 1
15298 34 1
15299 26 1
15299 34 1
15300 19 2
15300 24 2
15301 31 2
15302 31 4
15303 21 1
15304 18 1
15305 5 1
15305 31 1
15306 10 1
15307 4 1
15307 31 3
15308 24 10
15308 34 1
15309 3 1
15309 24 6
15310 21 16
15310 22 9
15310 29 1
15311 18 1
15312 21 1
15313 12 3
15313 13 1
15313 14 2
15314 10 1
15315 18 1
15316 12 12
15316 14 11
15317 24 14
15318 24 1
15319 18 4
15319 19 4
15319 20 2
15320 28 4
15320 38 1
15321 18 1
15322 29 1
15323 4 1
15323 38 4
15324 21 1
15325 9 6
15325 10 18
15325 11 5
15326 16 1
15327 3 1
15328 3 1
15329 28 1
15329 34 1
15330 2 1
15330 34 1
15331 38 1
15332 14 1
15333 9 1
15334 2 21
15334 3 30
15334 34 39
15335 18 1
15335 24 6
15336 16 2
15336 17 1
15337 2 2
15337 3 1
15338 3 1
15338 24 1
15339 19 1
15340 3 1
15341 29 17
15341 30 1
15342 10 1
15343 9 1
15344 1 1
15344 2 7
15344 3 15
15344 34 19
15345 9 4
15345 10 17
15345 11 11
15345 29 1
15346 22 1
15347 18 20
15347 19 17
15347 20 6
15347 34 1
15348 18 1
15349 4 5
15349 5 13
15349 38 8
15350 9 1
15350 38 1
15351 38 1
15352 34 1
15353 31 1
15354 24 1
15355 15 1
15356 8 1
15357 21 1
15358 19 1
15359 28 1
15360 12 1
15361 3 1
15362 18 1
15362 19 2
15362 20 2
15362 31 3
15363 31 13
15364 24 6
15365 24 1
15366 28 1
15367 12 3
15367 13 1
15367 14 7
15368 5 2
15368 38 2
15369 5 1
15369 24 24
15370 21 1
15370 22 1
15371 26 1
15372 26 8
15373 24 1
15374 21 1
15374 29 4
15375 2 1
15376 7 7
15376 8 13
15376 29 15
15377 3 1
15378 3 1
15379 19 1
15380 2 6
15380 3 11
15380 34 22
15381 4 3
15381 5 28
15381 38 29
15382 22 1
15382 24 10
15382 34 1
15383 21 1
15384 29 1
15384 31 4
15385 2 1
15386 38 1
15387 13 1
15388 24 2
15389 5 1
15390 14 3
15391 7 11
15391 8 45
15392 19 1
15393 29 6
15393 30 2
15394 34 1
15395 29 1
15396 9 1
15396 10 4
15396 11 3
15397 12 1
15397 29 1
15398 16 1
15398 18 1
15398 19 1
15398 22 1
15399 31 1
15400 34 1
15401 2 4
15401 3 5
15401 29 2
15401 30 1
15401 34 2
15402 4 1
15403 18 2
15403 19 5
15403 20 1
15404 22 1
15405 34 1
15406 5 1
15406 10 3
15406 11 3
15407 2 13
15407 3 35
15407 20 1
15407 34 54
15408 24 1
15409 38 1
15410 4 1
15410 5 15
15410 38 9
15411 5 1
15412 4 9
15412 5 50
15412 38 42
15413 2 1
15414 5 1
15415 24 1
15416 29 1
15417 26 9
15418 4 3
15418 5 27
15418 38 27
15419 3 2
15420 19 1
15420 31 2
15421 4 1
15421 5 10
15421 38 12
15422 21 36
15422 22 25
15423 29 1
15423 31 1
15424 2 1
15425 15 1
15426 21 1
15426 38 1
15427 24 2
15428 15 1
15428 17 2
15429 21 1
15430 2 1
15431 26 1
15431 29 7
15432 2 1
15433 2 5
15433 3 4
15433 34 4
15434 26 5
15434 34 1
15435 31 27
15435 33 1
15436 24 1
15437 2 15
15437 3 33
15437 9 1
15437 34 34
15438 28 1
15439 3 1
15440 21 4
15440 22 1
15441 38 1
15442 28 2
15443 4 1
15443 5 6
15443 38 5
15444 10 1
15445 12 1
15446 5 3
15446 38 1
15447 11 1
15448 21 1
15448 22 2
15449 3 1
15450 17 1
15451 5 1
15452 2 5
15452 3 10
15452 34 11
15452 38 1
15453 15 8
15453 16 10
15453 17 4
15454 25 1
15454 26 3
15455 29 4
15456 1 1
15456 2 19
15456 3 44
15456 17 1
15456 34 51
15457 15 1
15458 1 1
15458 2 9
15458 3 23
15458 10 1
15458 34 35
15459 34 1
15460 7 7
15460 8 11
15460 19 1
15461 3 1
15462 24 2
15463 28 1
15464 38 1
15465 7 4
15465 8 13
15466 22 1
15467 17 1
15468 34 1
15469 4 2
15469 5 12
15469 9 1
15469 31 1
15469 38 15
15470 19 1
15471 14 1
15472 23 1
15472 24 8
15473 12 1
15473 14 1
15474 9 7
15474 10 7
15474 11 5
15475 20 1
15475 38 1
15476 3 1
15477 12 1
15478 3 2
15479 34 1
15480 12 1
15481 23 3
15481 24 18
15482 10 1
15483 38 1
15484 24 1
15485 19 1
15486 3 1
15487 15 5
15487 16 3
15487 17 2
15488 5 1
15488 24 18
15489 2 3
15490 24 15
15491 38 1
15492 9 1
15493 24 1
15493 31 1
15494 24 1
15495 7 24
15495 8 38
15496 19 1
15497 24 16
15497 34 1
15497 38 1
15498 2 1
15498 25 3
15498 26 14
15499 5 1
15499 23 1
15499 24 11
15500 31 21
15501 23 1
15501 24 1
15501 31 1
15502 12 7
15502 14 4
15503 15 8
15503 16 5
15503 17 8
15503 18 12
15503 19 17
15503 20 5
15503 34 1
15504 28 2
15505 14 1
15506 15 13
15506 16 1
15506 17 11
15506 26 1
15507 3 1
15508 24 1
15509 31 1
15510 15 41
15510 16 18
15510 17 26
15511 28 3
15512 14 1
15513 24 2
15514 5 1
15515 5 1
15516 24 1
15516 31 1
15517 4 3
15517 5 2
15517 38 3
15518 24 5
15519 18 1
15520 18 31
15520 19 36
15520 20 7
15521 2 1
15522 5 1
15523 3 1
15524 1 1
15524 2 8
15524 3 13
15524 34 25
15525 2 1
15525 14 1
15526 31 1
15527 9 1
15527 11 2
15528 38 1
15529 34 1
15530 3 1
15530 8 1
15530 19 1
15530 24 1
15530 31 1
15530 38 2
15531 38 1
15532 14 1
15532 15 1
15533 12 59
15533 14 32
15534 1 1
15535 4 4
15535 5 23
15535 38 31
15536 2 1
15537 21 17
15537 22 10
15538 29 42
15538 30 4
15539 5 5
15539 12 1
15539 24 13
15539 38 3
15540 20 1
15540 21 5
15540 22 4
15541 3 1
15541 15 6
15541 16 1
15541 17 2
15542 9 1
15542 21 1
15543 24 2
15543 29 1
15544 29 1
15545 19 1
15546 31 3
15547 3 2
15547 34 1
15548 29 1
15549 3 1
15549 5 1
15550 4 3
15550 5 15
15550 24 1
15550 38 26
15551 28 3
15551 38 1
15552 22 1
15553 4 2
15553 5 3
15553 38 11
15554 26 1
15555 9 1
15556 29 1
15557 2 7
15557 3 12
15557 29 1
15557 34 20
15558 30 1
15559 29 13
15560 24 1
15560 28 2
15560 31 8
15561 18 1
15562 12 7
15562 14 6
15563 38 1
15564 3 2
15565 18 1
15566 2 1
15567 38 1
15568 4 3
15568 5 36
15568 34 1
15568 38 36
15569 15 10
15569 16 8
15569 17 13
15570 38 1
15571 16 1
15572 2 1
15572 24 8
15573 24 1
15574 5 13
15574 12 1
15574 38 26
15575 29 12
15575 30 1
15576 29 2
15577 18 22
15577 19 32
15577 20 9
15578 21 1
15579 22 1
15580 34 1
15581 2 4
15581 3 4
15581 34 11
15582 4 1
15582 5 1
15583 24 1
15584 8 1
15584 15 1
15584 28 5
15585 4 4
15585 5 36
15585 38 49
15586 29 10
15586 30 1
15587 26 2
15587 31 19
15588 18 2
15588 19 1
15589 29 1
15590 38 1
15591 3 1
15592 5 1
15592 10 1
15593 29 3
15594 38 1
15595 18 1
15596 3 1
15597 26 1
15598 28 1
15599 21 1
15600 24 1
15601 5 1
15602 21 1
15603 24 1
15604 24 7
15604 34 1
15605 12 1
15606 3 1
15606 7 4
15606 8 7
15606 16 7
15607 28 3
15608 29 1
15609 24 6
15610 18 2
15610 19 1
15611 9 1
15612 24 1
15613 2 1
15613 29 7
15614 29 8
15614 30 1
15614 38 1
15615 34 1
15616 31 18
15617 31 1
15618 31 1
15619 18 1
15619 24 1
15620 11 1
15621 15 1
15622 38 1
15623 3 1
15623 12 1
15624 21 1
15625 28 3
15626 10 1
15627 16 5
15627 34 1
15628 3 1
15628 12 7
15628 13 1
15628 14 2
15629 29 11
15630 2 3
15630 3 9
15630 34 7
15631 19 1
15632 21 1
15633 5 1
15634 5 1
15635 34 1
15636 9 1
15636 24 3
15637 28 1
15638 20 1
15638 38 1
15639 28 7
15640 13 1
15641 24 1
15642 38 1
15643 7 3
15643 8 3
15644 3 1
15645 3 1
15645 7 2
15645 8 4
15646 12 1
15647 3 1
15647 15 12
15647 16 14
15647 17 11
15648 19 1
15649 24 6
15650 17 1
15651 34 1
15652 9 2
15652 10 2
15652 11 2
15653 18 23
15653 19 31
15653 20 18
15654 2 13
15654 3 11
15654 5 1
15654 34 1
15655 16 1
15656 2 1
15656 34 1
15657 12 13
15657 14 8
15658 38 2
15659 29 1
15660 31 7
15660 38 1
15661 15 5
15661 17 1
15662 29 1
15663 21 5
15663 22 7
15664 13 1
15665 29 2
15665 30 1
15666 18 1
15667 2 3
15667 3 5
15667 34 10
15668 7 1
15668 8 8
15669 24 4
15669 29 4
15669 31 1
15670 18 21
15670 19 22
15670 20 7
15671 4 2
15671 5 20
15671 38 26
15672 21 1
15673 2 1
15673 3 7
15673 34 4
15674 2 1
15674 38 1
15675 38 1
15676 5 1
15677 29 1
15678 3 1
15679 5 1
15680 2 1
15681 5 1
15681 28 1
15681 38 3
15682 22 1
15683 21 11
15683 22 3
15684 3 3
15684 18 1
15684 21 1
15684 24 24
15684 34 1
15685 38 1
15686 9 5
15686 10 8
15686 11 6
15687 21 5
15687 22 2
15688 7 1
15688 19 1
15688 29 1
15689 10 1
15689 29 4
15690 26 2
15691 24 1
15692 1 1
15692 2 2
15692 3 10
15692 34 12
15693 22 1
15693 34 1
15693 38 1
15694 19 1
15694 29 1
15695 38 1
15696 4 1
15696 18 1
15696 20 1
15696 29 1
15697 2 1
15698 38 1
15699 29 1
15700 31 1
15701 1 1
15701 2 10
15701 3 9
15701 31 9
15701 34 12
15702 8 1
15703 4 2
15703 5 2
15703 38 5
15704 22 1
15705 31 5
15706 17 1
15707 14 1
15707 18 1
15708 11 1
15709 1 1
15709 2 2
15709 3 1
15709 34 9
15710 30 1
15711 29 15
15711 30 2
15711 34 1
15712 18 6
15712 19 8
15712 20 4
15713 21 2
15714 20 1
15715 12 5
15715 13 4
15715 14 7
15716 2 1
15716 3 1
15716 24 1
15716 31 4
15716 34 3
15717 5 1
15718 22 1
15718 29 17
15718 34 1
15719 12 2
15720 29 21
15720 30 2
15721 5 1
15722 12 1
15722 34 1
15723 18 1
15724 19 1
15725 22 1
15726 3 1
15727 29 2
15728 26 1
15729 24 1
15730 1 1
15730 3 2
15730 29 12
15730 34 2
15731 34 2
15732 38 1
15733 26 4
15733 29 1
15734 18 1
15735 11 1
15736 23 1
15736 24 10
15737 18 1
15738 2 2
15738 3 1
15738 34 1
15739 2 2
15739 3 1
15739 34 3
15740 2 1
15741 3 1
15742 29 2
15743 18 1
15744 4 3
15744 5 4
15744 29 1
15744 38 5
15745 24 1
15746 14 1
15747 34 1
15748 2 5
15748 3 20
15748 31 1
15748 34 18
15749 2 1
15749 9 2
15749 10 3
15749 11 1
15750 24 9
15752 29 1
15752 30 1
15753 1 1
15754 24 1
15754 28 1
15755 7 1
15756 19 1
15756 28 1
15757 18 1
15758 16 1
15759 12 4
15759 14 2
15760 9 2
15760 10 2
15760 11 2
15760 15 4
15760 16 2
15760 17 6
15761 3 1
15762 3 1
15763 2 1
15763 3 3
15763 34 3
15764 34 1
15765 29 16
15765 30 1
15765 34 2
15766 18 1
15767 34 1
15768 19 1
15769 3 1
15769 9 1
15770 34 1
15771 24 8
15772 12 1
15772 24 1
15773 2 1
15773 29 1
15774 2 2
15774 34 1
15775 3 2
15775 24 1
15775 34 1
15776 5 1
15777 19 2
15778 12 1
15778 24 1
15778 34 1
15779 29 1
15780 3 1
15780 24 1
15781 14 1
15782 24 2
15782 38 1
15783 3 1
15784 15 1
15785 20 1
15786 18 1
15786 24 1
15787 18 2
15787 19 3
15787 20 1
15788 11 1
15789 19 1
15790 21 3
15792 2 8
15792 3 15
15792 34 33
15793 29 1
15794 24 1
15795 38 1
15796 4 8
15796 5 13
15796 29 16
15796 30 3
15796 38 16
15797 3 1
15797 34 2
15798 9 1
15799 20 1
15800 29 16
15800 38 1
15801 10 1
15802 10 1
15803 38 1
15804 3 1
15804 4 4
15804 5 11
15804 34 1
15804 38 15
15805 12 1
15805 29 1
15806 24 2
15807 3 1
15808 24 1
15809 38 1
15810 34 1
15811 19 1
15812 21 1
15813 4 1
15814 31 2
15815 28 1
15816 15 6
15816 16 1
15816 17 2
15817 3 1
15817 29 13
15817 30 3
15818 18 1
15819 29 1
15820 1 1
15820 2 6
15820 3 16
15820 18 1
15820 34 34
15821 3 2
15821 11 1
15821 18 5
15821 19 2
15821 34 1
15822 29 1
15823 17 1
15824 19 1
15825 29 3
15825 30 1
15826 5 1
15826 24 1
15826 29 31
15826 30 1
15826 34 1
15827 29 2
15828 1 1
15828 2 28
15828 3 45
15828 31 21
15828 34 49
15829 19 1
15830 5 1
15830 19 1
15831 20 1
15832 3 1
15832 29 1
15833 2 8
15833 3 8
15833 19 1
15833 24 1
15833 34 8
15834 21 1
15835 3 1
15835 34 1
15836 5 1
15836 24 1
15836 31 1
15837 34 1
15838 18 1
15839 3 1
15839 14 1
15839 38 1
15840 5 1
15840 38 1
15841 18 1
15842 4 1
15842 29 1
15843 3 1
15844 26 4
15845 4 7
15845 5 21
15845 38 25
15846 12 1
15847 34 1
15848 34 1
15849 2 3
15849 3 13
15849 34 18
15850 4 2
15850 5 15
15850 24 2
15850 38 7
15851 28 6
15852 16 1
15852 17 1
15853 28 2
15854 34 6
15855 5 1
15855 7 1
15855 26 13
15855 29 2
15856 3 2
15856 34 2
15857 38 3
15858 24 2
15859 31 1
15860 2 1
15860 28 2
15861 12 1
15861 26 3
15862 34 1
15863 5 1
15864 25 1
15864 26 2
15865 24 6
15866 10 5
15866 11 3
15867 11 1
15868 2 1
15869 38 1
15870 3 3
15871 34 1
15872 17 1
15873 3 1
15873 24 7
15874 11 1
15875 2 14
15875 3 14
15875 34 20
15876 31 1
15877 2 13
15877 3 11
15877 11 1
15877 22 1
15877 26 8
15877 31 3
15877 34 18
15878 19 1
15879 3 1
15880 4 1
15880 5 18
15880 38 19
15881 29 1
15882 10 1
15883 18 3
15884 2 1
15884 3 1
15884 18 1
15884 34 3
15885 38 3
15886 24 13
15887 7 1
15888 8 1
15889 12 5
15889 22 1
15890 8 1
15890 19 1
15890 38 1
15891 29 1
15892 3 2
15892 11 1
15892 24 1
15892 38 1
15893 20 1
15894 7 1
15895 7 2
15896 34 1
15897 5 1
15898 5 1
15899 29 1
15900 23 1
15900 24 14
15901 28 1
15902 18 1
15903 5 1
15903 7 3
15903 24 2
15904 3 1
15905 34 1
15906 29 13
15907 5 1
15908 2 7
15908 3 6
15908 25 1
15908 26 5
15908 31 3
15908 34 2
15909 3 1
15910 38 1
15911 18 1
15911 19 1
15912 38 1
15913 38 1
15914 2 16
15914 3 41
15914 34 28
15915 5 1
15915 34 1
15916 21 1
15917 20 1
15918 12 1
15919 29 6
15920 9 1
15921 7 1
15922 12 17
15922 14 8
15923 7 1
15924 5 1
15925 31 1
15926 5 1
15927 24 4
15927 34 1
15927 38 1
15928 3 5
15928 34 5
15929 34 5
15930 2 1
15931 26 1
15932 24 2
15933 9 29
15933 10 35
15933 11 16
15934 34 2
15935 2 1
15935 31 2
15936 3 1
15937 34 1
15938 15 1
15939 28 1
15940 3 1
15940 10 1
15940 14 1
15940 19 1
15940 22 1
15940 24 1
15940 34 5
15941 4 1
15942 24 1
15943 18 1
15944 2 15
15944 3 11
15944 34 17
15945 28 1
15946 24 1
15947 3 1
15948 10 1
15949 12 1
15949 24 5
15950 3 1
15951 12 1
15952 3 2
15952 34 1
15953 3 1
15953 5 2
15953 38 2
15954 21 1
15955 5 1
15956 29 1
15957 34 1
15958 12 2
15958 14 2
15959 8 1
15960 2 2
15960 3 2
15960 34 7
15961 14 1
15961 24 1
15962 2 5
15962 3 8
15962 34 13
15963 2 12
15963 3 19
15963 11 1
15963 34 21
15964 24 1
15965 34 1
15966 18 1
15967 24 1
15967 26 9
15968 3 1
15969 2 4
15969 3 10
15969 34 9
15970 9 1
15970 26 5
15971 2 1
15971 18 42
15971 19 39
15972 24 1
15973 5 1
15974 3 1
15975 4 1
15976 4 4
15976 5 6
15976 38 9
15977 18 1
15977 24 1
15978 29 1
15978 31 1
15978 34 1
15980 5 1
15981 2 1
15981 24 1
15982 18 1
15982 20 1
15983 12 1
15984 30 1
15985 22 1
15986 2 2
15986 3 13
15986 29 1
15986 31 6
15986 34 6
15987 5 1
15988 21 1
15989 2 9
15989 3 16
15989 34 19
15990 29 2
15991 17 1
15991 29 17
15992 18 8
15992 19 11
15992 20 5
15993 22 1
15993 23 1
15993 24 17
15994 38 1
15995 21 1
15996 10 1
15997 7 8
15997 8 7
15998 26 1
15998 38 1
15999 24 1
16000 7 1
16000 8 4
16000 38 1
16001 29 3
16001 30 1
16002 4 2
16002 5 11
16002 38 6
16003 18 1
16004 31 1
16005 12 1
16006 28 1
16007 4 4
16007 5 18
16007 21 2
16007 38 15
16008 2 1
16008 3 7
16008 10 1
16008 34 8
16009 2 1
16009 21 4
16009 22 2
16009 34 1
16010 19 1
16010 21 2
16011 24 1
16012 22 1
16012 34 1
16013 3 1
16013 11 3
16014 18 1
16014 29 1
16015 29 3
16015 38 1
16016 3 1
16017 24 1
16017 34 1
16018 19 1
16019 3 1
16019 34 1
16020 2 10
16020 3 10
16020 34 13
16021 11 1
16022 7 1
16022 20 1
16023 29 1
16024 24 13
16025 3 1
16025 29 4
16026 3 1
16027 17 1
16028 29 1
16029 2 1
16030 2 1
16031 19 1
16032 19 1
16033 8 1
16033 28 2
16034 19 1
16035 29 1
16036 5 1
16036 38 2
16037 18 1
16038 2 1
16038 12 1
16039 10 1
16040 31 1
16041 7 1
16041 21 1
16041 34 1
16042 29 1
16043 17 1
16044 20 1
16045 5 1
16046 12 5
16046 13 1
16046 14 2
16047 12 1
16048 19 2
16049 18 1
16050 34 1
16051 28 1
16053 23 1
16053 24 17
16054 26 2
16054 34 1
16055 2 1
16056 31 1
16056 34 1
16057 2 1
16057 3 6
16057 34 4
16058 9 7
16058 10 10
16058 34 1
16059 3 1
16060 3 1
16060 29 4
16061 3 2
16061 34 2
16062 7 9
16062 8 9
16063 16 1
16064 5 1
16065 22 1
16066 2 1
16066 22 1
16067 12 4
16067 14 3
16068 14 1
16069 19 1
16070 31 1
16071 31 1
16072 3 1
16073 14 1
16074 3 1
16074 8 1
16074 15 1
16074 17 1
16074 21 1
16074 28 1
16074 29 2
16075 5 1
16075 18 13
16075 19 20
16075 20 2
16076 34 1
16077 29 2
16078 24 9
16079 19 1
16080 7 1
16080 16 1
16080 18 1
16080 20 1
16081 3 1
16082 31 1
16083 34 1
16084 34 1
16085 19 1
16086 5 2
16086 24 1
16086 28 4
16086 34 1
16087 1 1
16087 2 12
16087 3 19
16087 29 1
16087 34 32
16088 25 1
16088 26 4
16089 29 1
16090 5 1
16091 34 1
16092 31 8
16093 26 1
16094 16 1
16095 2 4
16095 3 9
16095 5 1
16095 34 12
16096 29 13
16097 18 1
16098 34 1
16099 2 1
16099 3 1
16100 34 1
16101 15 1
16102 21 1
16102 24 12
16102 29 1
16103 3 1
16103 10 1
16103 11 2
16103 38 3
16104 29 1
16105 31 17
16106 24 1
16107 38 1
16108 4 14
16108 5 59
16108 38 44
16109 29 2
16110 3 1
16111 1 1
16111 2 3
16111 3 4
16111 34 10
16112 5 3
16112 12 3
16112 14 1
16112 24 1
16112 38 3
16113 5 1
16113 19 1
16113 20 1
16114 9 1
16115 29 1
16116 24 15
16116 29 19
16116 31 11
16117 12 1
16117 34 1
16118 18 1
16118 19 1
16118 20 1
16118 29 1
16119 3 3
16120 2 1
16120 3 1
16120 24 11
16121 24 1
16122 5 1
16123 18 1
16124 22 1
16125 12 1
16126 24 6
16127 9 2
16127 10 8
16127 11 7
16128 8 2
16128 20 1
16129 4 1
16130 17 1
16131 8 1
16131 14 1
16132 5 1
16133 29 1
16134 12 1
16135 8 1
16136 4 6
16136 5 12
16136 38 27
16137 28 8
16138 34 1
16139 15 6
16139 17 1
16140 5 1
16140 27 1
16140 28 4
16141 17 1
16142 1 1
16142 2 15
16142 3 27
16142 34 35
16143 1 2
16143 2 12
16143 3 16
16143 34 43
16144 28 1
16145 29 12
16146 24 8
16147 2 9
16147 3 13
16147 24 1
16147 34 15
16148 15 1
16148 29 4
16148 30 1
16149 34 1
16150 2 1
16150 29 1
16151 24 4
16152 2 1
16152 21 1
16152 22 1
16153 21 16
16153 22 12
16154 3 1
16155 14 1
16156 2 13
16156 3 19
16156 34 32
16157 7 1
16158 18 1
16159 12 1
16160 29 15
16161 21 1
16162 18 1
16163 22 1
16164 18 2
16165 18 37
16165 19 31
16165 20 14
16166 18 1
16167 18 1
16167 28 1
16168 3 2
16169 21 1
16170 7 1
16171 3 1
16172 14 1
16173 21 5
16173 22 2
16173 34 1
16174 4 1
16174 5 2
16174 38 1
16175 20 1
16176 2 1
16177 19 1
16178 26 1
16178 38 1
16179 3 1
16180 21 1
16180 34 2
16181 34 1
16182 18 6
16182 19 6
16182 20 3
16183 2 5
16183 3 20
16183 21 1
16183 34 27
16184 29 1
16185 3 1
16185 12 5
16185 14 1
16185 26 1
16185 34 1
16186 3 1
16186 24 1
16186 34 3
16186 38 1
16187 34 1
16188 14 1
16189 2 1
16189 14 1
16190 3 1
16191 24 2
16192 28 1
16193 29 16
16193 30 2
16194 3 1
16195 8 1
16196 5 1
16197 28 1
16198 18 1
16199 18 4
16199 19 1
16200 29 1
16200 31 2
16201 24 7
16202 31 2
16203 22 1
16204 2 1
16204 3 1
16204 5 1
16204 8 2
16204 31 1
16205 31 6
16206 28 1
16207 24 1
16208 29 1
16209 14 1
16210 19 1
16211 12 1
16211 20 1
16211 29 1
16212 7 10
16212 8 8
16213 29 2
16213 30 2
16214 9 1
16215 29 19
16215 30 2
16216 38 1
16217 14 2
16218 18 1
16219 31 7
16220 29 2
16221 18 1
16222 31 2
16223 29 1
16224 3 1
16224 18 11
16224 19 18
16224 20 4
16225 28 1
16226 2 1
16227 29 1
16227 34 1
16228 5 1
16229 4 1
16230 29 20
16230 30 2
16230 34 1
16231 2 1
16231 18 1
16232 24 1
16233 3 1
16234 38 1
16235 2 10
16235 3 11
16235 34 19
16236 2 1
16237 22 1
16238 18 1
16239 8 1
16239 11 1
16239 12 4
16240 29 15
16240 30 1
16241 24 4
16241 29 5
16241 34 1
16241 38 1
16242 3 1
16243 21 2
16243 24 1
16243 29 1
16243 34 1
16243 38 2
16244 9 3
16244 10 7
16244 11 3
16244 38 1
16245 24 5
16246 38 1
16247 2 10
16247 3 13
16247 34 18
16248 15 1
16248 18 1
16248 23 1
16249 29 7
16250 24 1
16251 14 1
16252 5 1
16252 24 3
16253 4 1
16253 5 1
16254 4 1
16254 5 1
16255 15 1
16256 34 1
16257 5 1
16257 8 4
16257 12 8
16257 14 3
16257 24 3
16258 24 10
16259 5 1
16259 24 1
16260 3 1
16260 23 1
16260 24 17
16260 34 2
16261 22 1
16262 18 18
16262 19 14
16262 20 4
16263 4 2
16263 5 21
16263 38 9
16264 5 1
16265 11 1
16265 24 5
16266 29 2
16267 2 5
16267 3 7
16267 28 4
16267 29 20
16267 30 1
16267 34 14
16268 3 1
16268 24 1
16269 29 1
16270 2 1
16271 12 1
16271 18 1
16271 24 4
16272 28 1
16272 31 13
16273 8 1
16274 34 1
16275 4 6
16275 5 19
16275 38 27
16276 28 1
16277 3 1
16278 3 1
16279 3 1
16279 12 1
16280 19 1
16281 18 1
16282 15 6
16282 16 6
16282 17 4
16283 15 1
16284 10 1
16284 31 6
16285 20 1
16285 24 9
16286 7 4
16286 8 20
16287 3 1
16287 19 2
16288 31 4
16289 38 2
16290 18 40
16290 19 42
16290 20 15
16291 24 1
16292 17 1
16293 23 1
16293 24 25
16294 1 2
16294 2 30
16294 3 44
16294 21 1
16294 34 63
16295 5 1
16296 21 4
16296 22 2
16297 29 29
16297 30 3
16298 17 1
16299 20 1
16300 24 9
16301 7 9
16301 8 16
16302 15 1
16302 18 16
16302 19 9
16302 20 3
16302 29 1
16303 2 1
16303 21 31
16303 22 20
16303 24 1
16304 22 1
16305 11 1
16305 20 1
16305 24 28
16305 34 1
16306 18 26
16306 19 24
16306 20 9
16307 2 11
16307 3 12
16307 34 16
16308 11 1
16308 12 11
16308 14 13
16309 8 2
16310 3 1
16310 8 3
16311 3 1
16312 23 1
16312 24 11
16312 28 1
16313 24 3
16314 7 1
16314 10 1
16314 13 1
16315 21 14
16315 22 5
16316 34 1
16317 1 1
16317 2 13
16317 3 7
16317 30 1
16317 34 9
16318 21 1
16319 2 2
16319 3 1
16319 24 3
16319 34 2
16320 26 1
16321 21 10
16321 22 3
16322 29 1
16323 2 1
16324 31 7
16325 38 1
16326 2 1
16327 29 1
16328 34 1
16329 18 1
16330 19 1
16331 28 1
16332 26 1
16333 2 3
16333 3 1
16333 31 1
16333 34 4
16334 34 1
16335 5 1
16335 14 1
16336 2 23
16336 3 28
16336 10 1
16336 34 40
16337 22 1
16338 4 2
16338 23 2
16338 24 10
16338 28 3
16338 29 1
16339 4 1
16340 10 1
16341 3 1
16341 4 3
16341 5 20
16341 38 17
16342 38 1
16343 24 1
16344 5 1
16344 24 10
16345 21 1
16346 29 10
16346 30 1
16347 17 1
16347 24 1
16348 29 1
16349 19 1
16349 28 7
16349 29 1
16350 2 10
16350 3 20
16350 25 1
16350 29 3
16350 34 5
16351 2 7
16351 3 8
16351 31 1
16351 34 12
16352 3 1
16353 5 1
16354 4 1
16355 5 1
16356 12 9
16356 14 5
16357 18 9
16357 19 11
16358 24 3
16359 5 1
16359 21 9
16359 22 6
16360 25 3
16360 26 6
16360 31 1
16361 4 1
16362 9 1
16363 12 12
16363 14 5
16364 3 1
16365 10 1
16366 15 13
16366 16 3
16366 17 3
16367 24 1
16368 28 2
16369 31 1
16370 20 1
16370 24 1
16370 31 18
16371 34 1
16372 1 2
16372 2 4
16372 3 9
16372 34 14
16373 34 1
16374 5 1
16375 26 2
16376 8 1
16376 31 1
16377 21 5
16377 22 4
16378 3 1
16378 18 10
16378 19 14
16378 20 5
16378 29 1
16379 3 2
16379 21 8
16379 22 11
16380 24 5
16381 21 1
16382 31 1
16383 31 3
16384 2 1
16385 31 1
16386 38 1
16387 19 1
16388 2 1
16388 26 1
16389 38 1
16390 17 1
16391 19 1
16392 5 1
16393 25 1
16393 26 2
16394 31 5
16395 19 1
16396 9 1
16396 10 1
16396 12 5
16396 15 1
16397 9 21
16397 10 34
16397 11 23
16397 12 1
16397 34 1
16398 2 6
16398 3 4
16398 29 1
16398 34 11
16399 10 1
16400 3 1
16401 3 2
16401 18 14
16401 19 14
16401 20 7
16401 29 4
16401 30 2
16401 34 1
16402 31 1
16403 4 1
16403 5 4
16403 38 8
16404 21 8
16404 22 8
16405 19 1
16406 5 1
16407 25 2
16407 26 8
16408 18 1
16409 12 1
16409 14 2
16410 12 1
16410 34 1
16411 23 1
16411 24 12
16411 28 1
16412 15 1
16413 15 10
16413 16 3
16413 17 4
16413 21 3
16413 22 6
16414 3 1
16414 7 15
16414 8 28
16414 29 1
16415 4 1
16416 5 1
16416 34 1
16417 7 6
16417 8 17
16418 5 3
16418 15 15
16418 16 19
16418 17 12
16418 38 6
16419 9 7
16419 10 6
16419 11 3
16420 3 2
16420 13 1
16421 29 1
16422 31 1
16423 5 1
16423 38 1
16424 19 1
16425 10 1
16426 18 48
16426 19 54
16426 20 27
16427 8 1
16428 5 1
16428 29 9
16428 30 1
16429 18 1
16430 7 1
16430 34 1
16431 24 6
16432 18 30
16432 19 23
16432 20 8
16432 21 10
16432 22 4
16432 34 1
16433 18 1
16434 8 1
16435 5 1
16436 19 1
16437 14 1
16437 28 1
16438 29 2
16438 30 1
16439 5 1
16439 38 2
16440 29 31
16440 30 1
16441 2 1
16441 3 3
16441 34 5
16442 34 1
16443 2 8
16443 3 11
16443 34 10
16444 5 1
16444 8 1
16444 19 1
16444 24 1
16444 38 1
16445 21 13
16445 22 8
16446 29 12
16447 34 1
16448 16 1
16448 26 1
16449 31 1
16450 5 1
16450 38 2
16451 31 1
16452 24 1
16453 34 1
16454 11 1
16455 2 1
16455 26 1
16456 11 1
16457 7 1
16457 19 1
16458 29 1
16459 18 1
16460 5 1
16461 3 1
16461 18 12
16461 19 14
16461 20 5
16461 28 3
16462 3 1
16463 24 8
16464 17 1
16465 3 1
16466 34 1
16467 34 1
16468 34 2
16469 7 6
16469 8 12
16470 20 1
16470 24 24
16471 10 1
16471 11 1
16472 22 1
16473 24 5
16474 2 17
16474 3 42
16474 20 1
16474 31 1
16474 34 69
16475 2 29
16475 3 31
16475 4 1
16475 34 59
16475 38 2
16476 18 1
16477 34 1
16478 26 1
16479 15 1
16480 2 1
16480 3 4
16480 34 3
16481 5 1
16481 9 7
16481 10 2
16481 11 1
16482 17 1
16483 2 1
16483 26 3
16483 29 5
16484 5 1
16484 34 1
16485 16 1
16486 29 15
16486 30 2
16487 28 2
16487 29 10
16487 30 1
16488 9 16
16488 10 23
16488 11 8
16489 29 8
16490 19 1
16491 38 1
16492 5 1
16493 38 1
16494 29 11
16495 1 1
16495 2 20
16495 3 20
16495 34 26
16496 2 3
16496 3 4
16496 34 3
16497 26 3
16498 19 1
16499 19 1
16500 2 1
16501 23 1
16501 24 21
16502 4 7
16502 5 24
16502 38 11
16503 19 1
16504 29 2
16504 30 1
16505 34 1
16506 38 1
16507 19 1
16508 34 2
16509 1 1
16509 2 9
16509 3 6
16509 26 1
16509 34 13
16510 5 1
16510 38 1
16511 2 5
16511 3 11
16511 29 1
16511 34 6
16512 2 6
16512 3 28
16512 34 46
16513 29 3
16514 9 1
16514 14 1
16515 29 1
16516 19 1
16516 29 1
16517 29 1
16518 8 1
16518 23 1
16518 24 23
16518 28 11
16519 1 3
16519 2 21
16519 3 38
16519 34 58
16520 12 1
16521 3 1
16522 38 1
16523 16 1
16523 17 1
16524 34 1
16525 38 1
16526 19 1
16527 21 1
16528 3 1
16529 9 3
16529 10 18
16529 11 7
16530 10 1
16531 7 4
16531 8 8
16531 29 1
16532 2 1
16533 5 15
16533 38 11
16534 24 11
16535 18 1
16536 12 1
16537 2 1
16538 1 1
16538 3 2
16538 34 1
16539 4 8
16539 5 24
16539 38 21
16540 26 2
16541 14 1
16542 34 1
16543 29 1
16544 17 1
16545 18 1
16545 26 1
16546 29 1
16547 2 1
16547 7 5
16547 8 13
16547 12 1
16547 29 1
16548 9 1
16549 18 1
16550 5 1
16550 14 6
16551 12 1
16551 18 5
16551 19 2
16551 20 1
16552 34 1
16553 18 15
16553 19 32
16553 20 10
16554 15 2
16554 16 1
16554 17 2
16555 24 3
16556 26 1
16556 34 1
16557 3 1
16558 18 24
16558 19 30
16558 20 14
16559 5 1
16560 38 1
16561 17 1
16562 16 1
16563 17 1
16564 17 1
16565 2 1
16565 3 2
16565 24 1
16565 28 1
16565 34 1
16566 4 1
16566 5 2
16566 38 2
16567 34 1
16568 9 3
16568 10 8
16568 11 1
16568 28 1
16569 5 2
16569 18 8
16569 19 10
16569 20 3
16569 38 1
16570 18 1
16570 29 6
16571 9 1
16572 7 5
16572 8 16
16573 24 1
16574 34 2
16575 16 1
16576 34 1
16577 11 1
16577 12 1
16577 29 1
16578 34 1
16579 8 1
16580 19 1
16581 25 2
16581 26 13
16582 31 1
16582 34 1
16583 3 1
16584 3 1
16584 31 9
16585 28 1
16586 31 11
16587 31 4
16588 28 1
16589 24 1
16589 31 16
16590 3 1
16591 31 1
16592 4 12
16592 5 53
16592 34 1
16592 38 51
16593 21 9
16593 22 7
16594 3 1
16595 38 1
16596 2 3
16596 3 5
16596 26 2
16596 31 1
16596 34 7
16597 34 1
16598 5 2
16598 31 10
16599 31 11
16600 24 11
16601 31 19
16602 18 1
16602 31 5
16602 34 1
16603 5 4
16603 18 1
16603 38 1
16604 29 2
16605 3 1
16605 29 6
16606 20 1
16606 29 2
16606 34 1
16607 2 1
16608 3 1
16608 23 1
16608 24 5
16609 3 1
16610 1 2
16610 2 12
16610 3 21
16610 34 34
16611 18 44
16611 19 42
16611 20 11
16611 29 1
16612 2 13
16612 3 20
16612 34 20
16613 19 1
16614 19 1
16615 5 1
16615 34 1
16616 18 1
16617 21 5
16617 22 6
16618 20 1
16619 10 1
16619 11 2
16619 15 1
16619 17 1
16619 18 3
16619 24 1
16619 28 4
16619 34 1
16620 2 2
16620 3 1
16620 34 4
16621 28 1
16622 15 1
16623 9 7
16623 10 11
16623 11 6
16624 34 1
16625 34 2
16626 24 1
16627 4 6
16627 5 12
16627 38 11
16628 28 9
16629 10 1
16629 21 11
16629 22 10
16630 18 13
16630 19 13
16631 29 1
16632 21 5
16632 22 3
16633 8 1
16634 21 1
16635 31 6
16636 2 2
16636 3 4
16636 34 5
16637 34 1
16638 29 14
16638 30 1
16639 11 1
16639 29 2
16640 11 1
16641 18 1
16641 24 13
16641 28 1
16642 14 1
16643 24 5
16644 5 3
16644 38 1
16645 5 1
16646 34 1
16647 19 1
16648 21 1
16649 3 1
16649 5 1
16649 11 1
16649 18 1
16649 28 1
16649 30 1
16649 31 2
16649 34 3
16650 26 1
16651 19 1
16652 10 1
16653 8 1
16654 7 4
16654 8 8
16655 4 3
16655 5 9
16655 38 5
16656 3 1
16657 4 3
16657 5 17
16657 38 19
16658 4 2
16658 5 8
16658 38 2
16659 11 1
16660 5 1
16661 10 1
16661 28 4
16662 29 1
16663 3 1
16664 3 1
16665 2 5
16665 3 16
16665 34 18
16666 10 1
16667 29 14
16667 30 1
16668 1 3
16668 2 9
16668 3 24
16668 31 4
16668 34 31
16669 2 1
16670 34 1
16671 22 1
16672 21 1
16672 24 20
16673 5 1
16673 34 1
16674 24 6
16675 4 1
16676 2 2
16676 31 14
16677 26 1
16677 29 11
16677 30 1
16677 34 1
16678 34 1
16679 29 12
16679 30 1
16680 3 1
16680 4 9
16680 5 38
16680 38 16
16681 24 3
16682 7 1
16682 8 3
16682 26 6
16683 29 3
16683 30 1
16684 2 1
16684 31 10
16685 2 2
16685 3 6
16685 29 7
16685 30 3
16685 34 3
16686 3 1
16686 34 1
16687 8 1
16688 31 1
16689 34 1
16690 31 1
16691 4 2
16691 5 4
16691 38 1
16692 9 3
16692 10 6
16692 11 5
16693 21 1
16694 24 1
16695 5 1
16696 18 1
16696 24 3
16697 31 3
16698 29 1
16699 31 14
16700 3 1
16701 9 1
16702 4 2
16702 5 17
16702 38 21
16703 29 7
16704 14 1
16704 26 5
16704 34 1
16705 2 2
16705 3 10
16705 12 1
16705 34 7
16706 29 1
16707 29 2
16708 31 7
16709 31 1
16710 4 5
16710 5 21
16710 38 12
16711 28 6
16712 19 1
16713 5 1
16714 34 1
16715 19 1
16716 18 23
16716 19 18
16716 20 7
16717 7 1
16717 18 6
16717 19 7
16717 20 3
16718 19 1
16719 2 1
16720 12 2
16720 14 2
16721 34 1
16722 5 1
16723 1 3
16723 2 39
16723 3 67
16723 34 69
16724 16 1
16725 2 3
16725 3 2
16725 28 1
16725 34 2
16726 5 1
16727 5 1
16728 3 1
16729 4 2
16729 5 2
16730 34 1
16731 5 1
16732 34 1
16733 3 1
16733 28 4
16733 29 1
16734 2 6
16734 3 48
16734 34 59
16735 14 5
16736 19 1
16737 3 2
16738 24 7
16738 34 1
16738 38 1
16739 8 2
16740 4 1
16740 5 10
16740 38 5
16741 34 1
16742 9 1
16743 2 1
16744 3 1
16745 5 1
16745 34 2
16746 31 1
16747 29 6
16748 1 2
16748 2 22
16748 3 25
16748 34 40
16749 4 10
16749 5 44
16749 34 1
16749 38 53
16750 3 1
16751 4 2
16751 5 8
16751 38 9
16752 10 1
16752 14 1
16752 24 1
16752 38 1
16753 3 2
16753 18 1
16753 26 2
16754 22 1
16754 29 8
16754 30 1
16754 38 1
16755 3 1
16755 29 1
16756 29 2
16757 18 3
16758 26 1
16759 34 1
16760 18 1
16761 9 10
16761 10 13
16761 11 12
16762 2 18
16762 3 40
16762 34 44
16763 14 1
16764 31 4
16765 29 7
16765 30 1
16766 34 1
16767 38 1
16768 3 1
16769 4 1
16769 5 1
16769 38 4
16770 21 2
16770 22 1
16771 38 1
16772 2 1
16772 5 1
16772 12 11
16772 14 6
16772 18 1
16772 24 1
16772 26 2
16772 29 1
16772 38 1
16773 24 1
16773 34 2
16774 9 2
16774 10 1
16775 3 1
16776 24 2
16777 21 1
16778 5 1
16778 19 1
16778 25 1
16778 26 3
16778 29 9
16778 30 1
16779 2 1
16779 21 1
16780 38 2
16781 3 1
16781 24 1
16782 4 1
16782 5 1
16783 24 2
16784 24 1
16785 5 1
16785 28 3
16785 29 1
16786 18 7
16786 19 5
16787 38 1
16788 21 2
16788 22 2
16789 34 1
16790 2 3
16790 3 1
16790 34 1
16791 29 1
16792 29 9
16792 30 3
16793 13 1
16793 28 1
16794 34 1
16795 34 1
16796 12 2
16796 14 2
16797 18 6
16797 19 9
16797 20 2
16798 4 1
16799 29 1
16800 18 1
16801 21 1
16802 4 1
16802 5 11
16803 20 1
16804 10 1
16805 31 8
16806 24 5
16807 26 1
16808 13 1
16809 24 1
16810 18 1
16811 3 1
16812 10 1
16813 15 1
16813 18 15
16813 19 11
16813 20 5
16814 15 1
16815 3 1
16815 18 10
16815 19 21
16815 20 10
16816 21 1
16817 24 1
16818 5 1
16819 24 1
16820 24 1
16820 28 1
16821 15 6
16821 16 4
16821 17 6
16822 10 1
16823 5 3
16823 38 3
16824 4 14
16824 5 52
16824 38 44
16825 24 3
16826 4 3
16826 5 20
16826 38 12
16827 29 1
16828 29 1
16829 3 2
16829 4 7
16829 5 18
16829 38 14
16830 1 1
16830 3 1
16831 2 14
16831 3 24
16831 34 23
16832 4 1
16833 34 2
16834 5 1
16835 21 6
16835 22 6
16835 29 1
16836 4 12
16836 5 42
16836 29 1
16836 38 40
16837 2 1
16837 7 11
16837 8 17
16838 23 1
16838 24 17
16839 10 1
16840 1 2
16840 2 17
16840 3 14
16840 25 1
16840 26 1
16840 34 24
16841 34 1
16842 21 1
16842 22 1
16842 26 1
16842 38 2
16843 2 3
16843 3 6
16843 34 3
16844 15 6
16844 16 2
16844 17 3
16845 5 2
16845 15 1
16845 38 1
16846 34 1
16847 1 1
16847 2 15
16847 3 33
16847 4 1
16847 34 29
16848 29 1
16849 15 1
16850 34 1
16851 12 1
16852 19 1
16853 29 20
16854 5 2
16855 21 29
16855 22 16
16856 8 1
16857 11 1
16858 3 1
16858 24 2
16858 28 3
16858 29 1
16859 18 1
16860 2 1
16860 3 5
16860 34 6
16861 9 2
16861 18 1
16862 9 1
16862 24 8
16862 26 3
16863 31 1
16864 21 1
16865 24 1
16866 9 6
16866 10 14
16866 11 13
16866 24 1
16867 4 1
16867 5 14
16867 38 12
16868 9 1
16869 29 4
16870 11 1
16871 21 1
16872 22 1
16873 29 2
16874 34 1
16875 31 9
16876 18 1
16877 9 4
16877 10 5
16877 11 11
16877 12 1
16877 29 1
16878 15 1
16878 17 1
16878 34 1
16879 24 1
16880 12 3
16880 14 2
16881 26 1
16882 24 10
16883 34 1
16884 3 1
16884 15 1
16884 18 4
16884 19 2
16884 21 1
16885 3 1
16885 9 1
16885 10 2
16885 11 2
16885 19 2
16885 29 1
16885 31 1
16885 34 1
16886 22 1
16887 14 1
16888 12 10
16888 14 15
16889 7 2
16889 8 4
16890 31 4
16891 34 1
16892 38 1
16893 38 1
16894 19 1
16895 5 1
16895 21 1
16896 18 2
16896 19 3
16896 20 1
16897 34 1
16898 38 1
16899 34 1
16900 29 4
16900 30 1
16901 15 6
16901 16 1
16901 17 5
16902 38 1
16903 11 1
16904 9 1
16904 31 4
16905 10 1
16906 34 1
16907 18 7
16907 21 4
16907 22 3
16908 18 6
16908 19 7
16909 12 5
16909 13 1
16909 14 2
16910 34 1
16911 24 3
16912 24 1
16913 7 1
16914 21 1
16915 9 6
16915 10 8
16915 11 12
16915 18 4
16915 19 12
16916 4 4
16916 5 22
16916 38 18
16917 2 1
16917 3 11
16917 34 10
16918 21 1
16919 5 1
16920 14 1
16921 24 9
16922 18 1
16923 30 1
16924 15 1
16924 16 1
16924 17 1
16924 34 1
16925 4 2
16925 5 2
16925 31 1
16925 38 2
16926 29 8
16926 30 1
16927 28 1
16928 34 1
16929 3 1
16929 12 1
16929 14 1
16929 29 1
16930 12 9
16930 14 2
16931 3 1
16932 12 1
16933 24 2
16934 11 1
16935 9 1
16936 2 2
16936 3 3
16936 34 5
16937 1 1
16937 2 13
16937 3 11
16937 34 25
16938 22 1
16939 8 1
16940 29 1
16941 21 1
16942 31 1
16943 17 2
16944 29 8
16945 15 1
16945 16 1
16946 8 1
16947 21 2
16947 22 1
16948 21 1
16948 31 14
16949 19 1
16950 7 1
16951 29 6
16952 21 1
16952 28 2
16953 24 3
16954 16 1
16955 19 1
16956 38 1
16957 10 1
16957 21 1
16957 29 1
16958 38 1
16959 29 1
16960 24 1
16960 29 8
16960 38 1
16961 3 1
16962 8 2
16963 2 3
16963 3 5
16963 34 11
16964 29 7
16965 8 1
16966 18 1
16966 19 1
16967 3 1
16968 4 1
16969 24 1
16970 24 6
16971 7 1
16972 34 1
16973 34 1
16974 19 1
16974 34 1
16975 16 1
16975 29 1
16975 34 1
16976 10 1
16977 29 1
16978 21 1
16979 5 1
16980 24 1
16981 8 2
16981 18 1
16982 38 1
16983 1 1
16983 2 13
16983 3 25
16983 34 26
16984 9 1
16985 3 1
16986 22 1
16987 15 1
16988 18 1
16988 19 3
16989 29 1
16990 18 1
16991 8 1
16991 9 6
16991 10 17
16991 11 11
16991 18 16
16991 19 19
16991 20 6
16992 24 17
16993 10 1
16994 19 1
16994 29 1
16995 28 3
16996 27 1
16996 28 8
16996 38 1
16997 34 1
16998 2 6
16998 3 11
16998 34 11
16999 29 1
17000 3 1
17000 18 1
17000 19 1
17001 29 1
17002 5 1
17002 38 4
17003 12 8
17003 14 2
17003 29 8
17003 30 1
17004 14 1
17005 2 7
17005 3 29
17005 10 1
17005 34 22
17006 5 4
17006 18 3
17006 19 3
17006 20 2
17006 38 2
17007 2 1
17007 3 1
17007 34 1
17008 1 1
17008 2 10
17008 3 27
17008 34 22
17009 22 1
17010 34 1
17011 24 2
17012 21 1
17013 31 1
17014 8 1
17015 10 1
17016 21 1
17016 29 13
17016 30 1
17016 38 1
17017 22 1
17018 8 2
17019 10 2
17020 38 1
17021 4 6
17021 5 25
17021 38 29
17022 12 1
17022 19 1
17022 24 1
17022 29 1
17023 38 1
17024 15 1
17025 7 1
17026 15 1
17027 2 3
17027 3 3
17027 34 5
17028 18 26
17028 19 19
17028 20 2
17029 3 1
17029 8 1
17029 38 1
17030 8 1
17031 2 7
17031 3 26
17031 34 36
17032 3 1
17033 26 2
17033 29 12
17033 30 1
17034 24 6
17034 38 1
17035 29 7
17036 24 1
17037 14 1
17038 34 1
17039 29 1
17040 26 1
17040 29 1
17041 28 1
17042 5 1
17042 14 1
17043 5 1
17043 19 1
17043 38 1
17044 29 4
17045 3 1
17046 7 5
17046 8 19
17046 38 1
17047 2 1
17048 31 1
17049 7 3
17049 8 2
17050 24 19
17050 31 3
17051 15 3
17051 16 1
17051 17 2
17051 18 1
17052 22 1
17053 9 2
17053 21 1
17054 21 5
17054 22 4
17055 3 1
17056 23 1
17056 24 9
17057 38 1
17058 12 1
17059 38 1
17060 24 1
17061 15 1
17062 15 1
17062 29 7
17063 9 1
17064 21 1
17065 5 1
17066 12 1
17067 29 6
17068 34 1
17069 12 6
17069 14 2
17070 16 2
17070 31 1
17071 22 1
17072 7 5
17072 8 12
17073 3 1
17073 22 1
17073 24 1
17074 2 1
17075 3 1
17076 7 1
17076 8 2
17077 14 1
17078 3 1
17079 10 1
17080 21 1
17081 24 7
17082 26 1
17083 21 3
17083 22 1
17084 24 12
17085 34 1
17086 29 18
17086 30 2
17087 21 1
17087 28 1
17088 3 1
17089 7 5
17089 8 10
17090 11 1
17091 11 12
17092 17 1
17093 29 1
17094 3 1
17095 4 1
17096 19 1
17097 20 1
17098 30 1
17099 14 3
17099 21 6
17100 8 1
17100 29 11
17100 30 1
17101 2 1
17102 34 1
17103 15 12
17103 17 2
17104 15 1
17105 17 1
17106 21 3
17107 12 1
17107 24 3
17108 34 1
17109 38 1
17110 21 1
17111 8 1
17112 10 4
17113 18 3
17113 19 3
17113 20 4
17114 15 15
17114 16 14
17114 17 6
17115 2 1
17115 9 1
17115 22 1
17115 29 1
17115 31 2
17115 34 2
17115 38 1
17116 2 3
17116 3 15
17116 34 23
17117 31 2
17118 17 1
17119 28 2
17120 34 1
17121 3 7
17121 34 8
17122 19 1
17123 31 7
17124 18 1
17125 22 1
17126 29 1
17127 28 2
17127 34 1
17128 2 2
17128 3 2
17128 19 1
17128 23 1
17128 24 26
17128 34 1
17129 17 1
17129 18 1
17129 21 1
17129 34 1
17130 34 1
17131 24 4
17132 12 2
17133 3 1
17134 2 15
17134 3 25
17134 15 1
17134 34 33
17135 2 1
17136 7 1
17136 38 1
17137 4 1
17137 5 5
17137 38 6
17138 24 1
17139 2 1
17139 3 3
17139 28 4
17139 34 9
17140 31 2
17140 38 1
17141 12 1
17141 14 1
17141 19 1
17142 25 3
17142 26 1
17143 9 1
17143 29 8
17144 2 1
17144 3 4
17144 29 6
17144 30 1
17144 34 3
17145 22 1
17145 24 7
17145 28 1
17146 5 1
17147 5 1
17147 19 1
17147 20 1
17147 21 3
17147 22 7
17148 5 1
17148 24 3
17149 15 23
17149 16 13
17149 17 17
17150 17 1
17151 34 1
17152 31 2
17153 34 1
17154 28 2
17155 12 1
17156 19 1
17157 21 5
17157 22 2
17157 31 1
17157 38 3
17158 19 1
17159 18 27
17159 19 34
17159 20 7
17160 24 5
17161 19 1
17162 28 5
17163 4 1
17163 5 1
17164 24 1
17165 2 1
17165 29 1
17166 18 27
17166 19 28
17166 20 12
17166 34 1
17167 2 1
17168 29 5
17169 18 1
17169 29 2
17170 18 1
17171 31 1
17172 18 2
17172 19 4
17172 20 2
17173 4 7
17173 5 26
17173 38 24
17174 3 1
17175 5 1
17175 12 1
17175 14 1
17176 29 5
17177 2 1
17177 16 5
17177 17 11
17177 21 14
17177 34 1
17178 4 9
17178 5 34
17178 38 27
17179 15 4
17179 16 1
17179 17 5
17179 18 13
17179 19 11
17179 20 9
17180 7 15
17180 8 19
17181 3 1
17182 2 1
17182 21 22
17182 22 21
17183 5 2
17183 38 1
17184 15 4
17184 16 5
17184 17 4
17184 28 1
17184 31 2
17185 21 1
17186 19 1
17187 5 1
17188 9 1
17189 24 2
17190 29 4
17191 10 1
17192 9 2
17192 10 3
17193 5 1
17194 3 1
17194 7 1
17194 15 1
17194 16 1
17195 5 4
17195 8 1
17195 38 5
17196 9 5
17196 10 3
17196 11 2
17196 16 1
17197 26 3
17198 1 1
17198 2 7
17198 3 9
17198 24 1
17198 26 2
17198 34 20
17199 3 1
17199 18 24
17199 19 29
17199 20 11
17200 34 1
17201 24 2
17202 34 1
17203 3 1
17203 34 1
17204 28 7
17205 26 5
17206 18 1
17207 12 3
17207 14 3
17208 16 1
17208 17 2
17208 24 1
17209 26 1
17210 38 1
17211 31 2
17212 8 1
17213 24 1
17213 29 12
17213 30 1
17214 18 1
17215 12 1
17216 9 1
17216 10 4
17216 11 3
17217 22 1
17218 12 11
17219 24 4
17220 4 1
17220 5 2
17220 9 11
17220 10 11
17220 11 9
17220 28 1
17220 38 3
17221 26 1
17222 14 1
17223 28 5
17224 15 1
17225 5 7
17225 38 2
17226 21 3
17226 22 1
17227 8 1
17228 29 1
17229 2 1
17230 3 1
17231 38 1
17232 2 1
17232 15 1
17233 2 2
17233 3 1
17233 5 1
17233 8 2
17233 19 1
17233 24 1
17233 29 2
17233 30 1
17233 31 2
17233 38 1
17234 11 1
17235 2 1
17236 24 1
17237 5 1
17238 19 2
17239 3 1
17239 4 1
17239 9 1
17239 24 1
17240 2 1
17241 34 1
17242 34 1
17243 2 11
17243 3 15
17243 14 1
17243 34 28
17244 19 1
17244 29 1
17245 3 1
17246 29 1
17247 2 1
17248 38 1
17249 29 1
17250 24 12
17251 18 1
17251 24 1
17251 31 1
17252 28 1
17253 11 1
17254 29 1
17255 34 1
17256 22 1
17257 29 4
17257 30 1
17258 18 2
17258 19 1
17258 20 1
17259 3 1
17259 21 2
17259 22 2
17259 24 1
17260 38 2
17261 3 1
17262 4 1
17262 5 6
17262 28 3
17262 38 3
17263 24 1
17264 10 1
17264 17 1
17265 19 1
17266 2 1
17267 3 1
17267 34 1
17268 13 2
17268 14 2
17268 19 8
17268 20 5
17269 15 6
17269 16 2
17269 17 2
17269 18 1
17270 29 17
17271 24 1
17271 31 1
17272 24 1
17273 2 1
17273 3 6
17273 34 8
17274 19 1
17274 20 1
17274 29 16
17274 30 1
17275 8 1
17276 18 20
17276 19 35
17276 20 14
17277 4 4
17277 5 12
17277 38 18
17278 24 1
17279 3 1
17280 29 5
17281 29 1
17282 1 2
17282 2 9
17282 3 46
17282 34 60
17283 19 1
17283 21 9
17283 24 2
17284 7 1
17285 12 1
17285 18 1
17285 21 21
17285 22 11
17285 34 1
17286 10 1
17287 4 6
17287 5 24
17287 38 27
17288 24 1
17289 34 1
17290 26 3
17291 3 1
17291 26 1
17292 26 1
17293 38 2
17294 31 9
17295 26 4
17295 29 1
17296 8 1
17297 3 1
17297 31 10
17298 5 1
17299 18 4
17299 19 1
17299 20 2
17300 28 3
17301 5 1
17302 2 1
17302 5 1
17302 7 4
17302 8 21
17302 10 1
17303 4 2
17303 5 6
17303 9 24
17303 10 32
17303 11 10
17303 38 6
17304 16 1
17305 17 1
17306 19 1
17307 31 1
17308 29 1
17309 10 1
17309 24 1
17309 26 6
17309 29 4
17310 24 37
17311 3 1
17311 11 5
17312 3 1
17313 18 1
17313 19 1
17313 20 1
17313 22 2
17314 34 2
17315 34 1
17316 4 1
17316 5 26
17316 38 25
17317 24 1
17318 3 1
17318 34 2
17319 38 1
17320 34 1
17321 34 1
17322 29 1
17323 19 1
17324 10 1
17325 31 1
17326 3 1
17326 8 1
17327 22 1
17328 10 1
17328 34 1
17329 24 4
17330 29 1
17331 5 1
17332 13 1
17332 14 1
17333 34 1
17334 38 1
17335 16 1
17336 10 1
17336 12 1
17337 5 1
17337 23 1
17337 24 17
17338 29 3
17339 7 11
17339 8 19
17339 19 1
17340 4 1
17340 5 8
17340 10 1
17340 38 9
17341 3 1
17342 3 1
17342 12 1
17343 2 6
17343 3 2
17343 34 4
17344 2 10
17344 3 11
17344 34 15
17345 38 1
17346 18 1
17347 15 1
17348 4 1
17349 5 1
17350 38 1
17351 3 1
17352 10 1
17353 5 1
17353 18 2
17353 25 1
17354 2 1
17354 22 1
17355 2 5
17355 3 3
17355 34 6
17356 9 1
17356 11 1
17357 2 1
17357 18 6
17357 19 3
17357 20 2
17358 9 1
17358 18 1
17358 20 1
17358 21 1
17358 31 1
17358 38 1
17359 24 1
17360 3 1
17360 28 4
17361 11 1
17361 29 3
17361 30 1
17362 2 1
17363 7 1
17364 2 5
17364 3 1
17364 34 2
17365 2 5
17365 3 7
17365 29 2
17365 30 1
17365 34 9
17366 21 9
17366 22 8
17367 18 1
17368 21 1
17369 9 1
17369 10 3
17369 11 2
17369 15 1
17369 16 1
17370 34 1
17371 8 1
17371 22 1
17372 5 1
17373 3 1
17374 28 1
17375 2 6
17375 3 24
17375 29 1
17375 34 42
17376 18 3
17376 19 3
17376 20 2
17377 24 1
17378 2 6
17378 3 21
17378 34 23
17379 24 4
17380 2 1
17381 10 1
17382 25 1
17382 26 2
17383 12 1
17384 18 28
17384 19 47
17384 20 23
17385 34 1
17386 38 1
17387 2 1
17388 21 1
17389 31 6
17390 38 1
17391 24 4
17392 5 1
17392 12 4
17392 14 3
17393 3 1
17394 11 2
17395 29 2
17395 34 1
17396 7 1
17397 21 5
17397 22 6
17398 38 1
17399 31 1
17400 2 1
17400 10 1
17400 18 1
17401 2 19
17401 3 60
17401 14 1
17401 34 80
17402 21 1
17403 16 1
17404 2 3
17404 3 3
17404 34 2
17405 21 1
17406 8 1
17406 26 1
17407 4 2
17407 5 5
17407 12 2
17407 38 2
17408 16 1
17408 29 10
17408 30 1
17409 21 1
17409 34 1
17410 22 1
17411 38 1
17412 5 1
17412 38 5
17413 9 1
17414 24 5
17415 34 1
17416 18 4
17416 19 14
17416 20 4
17417 29 11
17418 21 1
17418 22 2
17419 24 3
17420 2 6
17420 3 7
17420 34 11
17421 34 1
17422 4 4
17422 5 24
17422 38 21
17423 2 1
17424 29 14
17424 30 1
17425 2 21
17425 3 55
17425 18 1
17425 34 59
17426 18 1
17427 34 1
17428 4 1
17429 19 1
17430 5 1
17431 5 1
17432 28 1
17433 2 42
17433 3 60
17433 21 20
17433 22 14
17433 34 88
17434 24 5
17435 24 1
17436 10 1
17437 34 1
17438 34 1
17439 29 15
17439 30 2
17440 8 1
17441 18 2
17441 19 5
17441 20 2
17442 34 1
17443 28 6
17444 3 1
17445 34 1
17446 3 1
17447 2 4
17447 3 2
17447 34 10
17447 38 1
17448 2 1
17448 3 1
17448 4 1
17448 5 2
17448 14 1
17448 18 1
17448 19 3
17448 21 1
17448 29 2
17448 34 1
17448 38 1
17449 24 10
17450 8 1
17450 21 1
17451 5 1
17451 29 6
17452 4 11
17452 5 17
17452 24 4
17452 38 17
17453 20 1
17453 24 4
17453 28 2
17454 29 9
17456 3 1
17456 10 1
17456 14 1
17456 24 14
17457 2 1
17457 12 2
17458 18 1
17459 24 5
17459 34 1
17460 22 1
17460 24 15
17460 34 1
17461 26 2
17462 18 1
17462 19 1
17462 20 1
17463 2 6
17463 3 8
17463 34 3
17464 38 1
17465 4 1
17465 5 3
17465 38 4
17466 28 1
17467 4 3
17467 5 13
17467 38 17
17468 2 1
17469 10 3
17470 4 4
17470 5 33
17470 38 52
17471 2 6
17471 3 26
17471 34 22
17472 25 1
17472 26 13
17473 4 9
17473 5 32
17473 38 33
17474 24 3
17475 29 1
17476 24 1
17476 38 1
17477 18 15
17477 19 12
17477 20 7
17478 38 1
17479 38 1
17480 19 1
17481 5 2
17481 38 1
17482 3 1
17483 12 10
17483 14 8
17484 20 1
17485 38 1
17486 5 1
17486 31 8
17487 31 4
17488 28 6
17489 28 1
17490 29 1
17491 4 12
17491 5 34
17491 21 1
17491 38 64
17492 7 1
17492 8 3
17493 24 1
17494 26 1
17495 24 1
17496 2 6
17496 3 20
17496 21 9
17496 22 2
17496 34 43
17497 7 1
17497 18 1
17497 24 1
17497 31 73
17498 1 4
17498 2 21
17498 3 44
17498 34 47
17499 7 2
17499 8 9
17500 18 3
17500 19 13
17500 20 1
17500 24 1
17501 29 6
17501 30 1
17502 18 2
17502 19 5
17502 20 1
17503 3 2
17503 8 1
17503 29 1
17503 34 1
17504 2 1
17505 18 1
17506 7 1
17506 38 1
17507 31 1
17507 34 2
17508 31 1
17509 5 1
17509 38 3
17510 15 1
17511 8 1
17512 21 20
17512 22 10
17513 34 1
17514 16 1
17515 24 4
17516 7 3
17516 8 4
17516 25 1
17516 26 13
17516 29 1
17517 24 1
17518 14 2
17519 24 1
17520 24 2
17521 8 2
17522 29 1
17523 16 1
17524 12 1
17525 20 1
17526 34 1
17527 3 1
17528 3 1
17529 34 1
17530 24 1
17531 29 1
17532 1 1
17532 2 17
17532 3 29
17532 34 28
17533 21 1
17534 23 1
17534 24 14
17535 19 1
17535 20 2
17536 3 1
17537 21 1
17538 12 29
17538 13 1
17538 14 18
17538 34 1
17539 5 1
17539 14 1
17539 24 1
17539 25 1
17539 26 25
17539 29 1
17540 9 1
17541 34 1
17542 19 1
17543 24 1
17544 5 6
17544 29 1
17544 38 10
17545 26 1
17546 26 1
17547 21 1
17548 10 1
17548 31 12
17549 12 39
17549 14 26
17550 29 1
17551 8 2
17551 28 2
17552 14 1
17553 2 1
17553 10 3
17554 5 2
17554 26 4
17554 34 1
17555 34 1
17555 38 1
17556 4 1
17556 5 1
17557 30 1
17558 11 1
17559 21 1
17560 3 1
17561 24 3
17561 31 2
17562 26 7
17563 9 1
17564 12 1
17565 3 1
17565 19 8
17565 20 8
17566 15 1
17567 15 2
17568 9 15
17568 10 26
17568 11 24
17569 29 1
17570 5 1
17570 18 1
17571 2 1
17572 21 14
17572 22 11
17573 29 1
17574 2 9
17574 3 15
17574 21 1
17574 34 17
17575 2 1
17575 7 1
17576 28 2
17577 19 1
17578 24 1
17579 19 1
17580 2 1
17581 7 2
17581 8 4
17582 18 1
17583 31 1
17584 12 1
17584 29 8
17584 38 1
17585 29 1
17586 16 1
17587 9 1
17587 10 14
17587 11 7
17587 18 1
17588 24 8
17589 18 1
17590 3 1
17590 38 1
17591 3 1
17592 11 16
17592 15 2
17592 16 5
17592 17 1
17593 5 1
17594 8 1
17595 24 1
17596 5 2
17596 18 1
17597 4 1
17597 5 5
17597 26 1
17597 38 2
17598 15 1
17599 31 1
17600 34 1
17600 38 3
17601 31 6
17602 12 12
17602 14 5
17603 21 2
17603 22 1
17604 12 9
17604 14 1
17605 3 1
17606 5 2
17606 20 1
17607 34 1
17608 15 1
17609 3 1
17609 31 13
17609 38 1
17610 3 1
17611 12 3
17611 14 1
17612 7 3
17612 8 4
17613 5 1
17613 24 13
17613 25 2
17613 26 10
17613 34 1
17614 1 3
17614 2 21
17614 3 20
17614 34 35
17615 24 1
17616 18 20
17616 19 18
17616 20 11
17616 38 1
17617 19 1
17617 20 2
17618 29 1
17619 12 1
17620 2 6
17620 3 6
17620 34 10
17621 38 1
17622 9 1
17623 29 1
17624 31 1
17625 34 1
17626 3 1
17627 24 9
17627 34 1
17628 5 1
17628 38 1
17629 4 1
17629 5 1
17629 38 2
17630 3 1
17630 18 4
17630 19 2
17630 20 1
17631 4 1
17631 5 9
17631 38 11
17632 8 1
17632 15 4
17632 16 3
17632 17 2
17633 29 4
17634 12 1
17635 3 1
17635 29 1
17636 21 1
17637 24 2
17638 19 1
17639 38 1
17640 4 3
17640 5 22
17640 38 30
17641 3 1
17642 18 1
17643 34 1
17644 3 1
17645 3 1
17645 24 1
17645 34 1
17646 3 1
17647 25 1
17648 3 1
17649 4 2
17649 5 5
17649 38 9
17650 22 1
17651 24 1
17651 38 1
17652 19 1
17652 38 1
17653 17 1
17653 38 1
17654 15 1
17655 8 2
17656 15 3
17656 16 2
17656 17 4
17656 18 1
17656 19 1
17657 7 1
17658 38 2
17659 13 1
17660 2 6
17660 3 8
17660 34 7
17661 23 1
17661 24 2
17662 29 1
17663 31 1
17664 31 1
17665 24 1
17666 22 1
17667 18 16
17667 19 8
17667 20 6
17668 18 1
17669 2 1
17669 18 11
17669 19 7
17669 20 4
17669 21 2
17669 22 7
17670 21 2
17670 22 1
17671 28 1
17672 28 1
17673 27 1
17674 29 2
17675 5 1
17676 7 1
17677 19 2
17678 7 18
17678 8 47
17679 31 1
17680 8 1
17681 26 7
17682 26 2
17683 34 1
17683 38 1
17684 21 1
17685 21 2
17685 22 6
17685 38 1
17686 19 3
17687 12 1
17687 31 6
17688 24 7
17688 38 1
17689 28 1
17690 26 2
17690 31 2
17691 4 6
17691 5 22
17691 38 10
17692 21 1
17693 26 1
17694 29 2
17695 9 1
17696 8 1
17697 21 1
17698 24 1
17699 2 1
17700 24 3
17700 29 1
17700 34 1
17701 29 8
17702 29 5
17703 4 2
17703 5 7
17703 38 4
17704 24 1
17705 34 1
17706 18 9
17706 19 17
17706 20 3
17707 29 9
17707 30 1
17707 31 5
17708 19 1
17709 18 1
17710 12 1
17710 13 1
17710 14 2
17711 29 1
17712 31 16
17713 29 1
17714 5 1
17714 26 1
17714 31 1
17715 17 1
17716 9 31
17716 34 1
17716 38 1
17717 34 1
17717 38 1
17718 10 1
17718 11 3
17718 12 4
17718 13 1
17718 14 2
17719 14 1
17720 21 1
17722 5 1
17723 2 1
17724 24 8
17724 31 1
17724 34 1
17725 29 4
17726 4 1
17726 5 7
17726 38 13
17727 31 11
17728 38 1
17729 26 10
17730 8 1
17731 9 7
17731 10 7
17731 11 7
17731 16 1
17732 12 31
17732 13 2
17732 14 12
17732 16 1
17732 17 1
17733 10 1
17733 18 2
17733 19 4
17733 20 2
17734 14 1
17735 24 26
17736 21 8
17736 22 5
17737 3 1
17738 28 1
17739 34 3
17740 4 8
17740 5 23
17740 8 1
17740 38 30
17741 38 1
17742 21 1
17743 5 1
17743 18 17
17743 19 21
17743 20 9
17744 21 8
17744 22 6
17744 24 1
17744 34 1
17745 20 1
17746 26 1
17746 38 1
17747 18 1
17747 24 6
17748 5 1
17749 21 1
17750 24 9
17751 31 10
17752 13 1
17753 19 1
17753 21 22
17753 22 10
17754 12 8
17754 14 3
17755 3 1
17756 38 2
17757 25 1
17758 1 1
17758 2 23
17758 3 23
17758 34 25
17759 5 1
17759 9 1
17760 2 7
17760 3 11
17760 34 14
17761 1 2
17761 2 33
17761 3 58
17761 5 1
17761 34 79
17762 3 1
17762 34 1
17763 2 1
17764 5 1
17764 29 1
17764 38 1
17765 30 1
17766 14 1
17767 24 7
17768 18 3
17768 19 2
17769 19 1
17770 9 1
17770 10 5
17770 11 3
17770 19 1
17771 31 14
17772 2 1
17772 18 26
17772 19 33
17772 20 14
17773 3 1
17773 24 7
17774 34 1
17775 29 7
17775 30 1
17776 34 1
17777 19 1
17778 34 1
17779 2 2
17779 3 1
17779 18 2
17779 21 1
17779 24 1
17779 34 1
17779 38 3
17780 3 2
17780 29 1
17781 29 13
17781 30 1
17782 5 4
17782 38 3
17783 2 1
17784 16 1
17785 21 3
17785 22 1
17786 38 1
17787 11 1
17788 31 7
17789 8 1
17790 4 1
17790 8 1
17791 5 1
17791 29 7
17791 30 1
17792 26 2
17793 1 3
17793 2 38
17793 3 49
17793 26 1
17793 34 84
17794 38 2
17795 2 10
17795 3 17
17795 21 2
17795 34 16
17795 38 1
17796 34 1
17797 8 1
17797 17 1
17798 18 14
17798 19 25
17798 20 7
17799 15 1
17799 28 3
17800 24 6
17800 31 2
17801 15 1
17801 16 1
17801 17 1
17802 5 1
17802 15 1
17802 24 1
17803 29 3
17803 38 1
17804 18 1
17804 28 3
17805 3 1
17806 38 1
17807 31 1
17808 12 1
17809 38 1
17810 29 1
17810 31 4
17811 38 1
17812 21 1
17813 12 1
17814 2 1
17814 34 4
17815 19 1
17816 19 1
17816 34 1
17817 18 2
17817 19 1
17818 4 1
17819 4 4
17819 5 16
17819 38 15
17820 2 1
17821 21 2
17822 29 1
17823 21 5
17823 22 5
17824 9 2
17824 10 2
17824 11 1
17825 29 12
17826 10 1
17827 31 1
17828 5 2
17829 18 35
17829 19 49
17829 20 3
17830 34 1
17831 12 6
17831 14 7
17832 18 5
17832 19 6
17832 20 2
17833 5 1
17834 31 1
17835 5 1
17836 24 1
17837 3 1
17838 31 2
17839 24 10
17839 29 1
17840 38 1
17841 29 1
17842 29 1
17843 29 1
17844 9 3
17844 10 11
17844 11 4
17845 28 1
17846 18 1
17846 19 1
17847 19 1
17848 10 1
17848 24 1
17849 34 1
17850 8 1
17851 5 1
17852 22 1
17852 28 1
17852 29 1
17853 21 1
17853 22 1
17854 26 1
17855 3 1
17856 21 8
17856 22 7
17856 38 1
17857 34 1
17858 3 1
17859 24 1
17860 12 1
17860 28 2
17860 34 1
17861 5 1
17862 9 4
17862 10 10
17862 11 6
17863 18 2
17863 19 1
17864 30 1
17864 34 1
17865 12 17
17865 13 1
17865 14 16
17866 29 5
17867 24 3
17868 24 1
17869 14 1
17870 19 1
17871 38 2
17872 12 5
17873 29 1
17874 3 1
17874 18 21
17874 19 25
17874 20 6
17874 29 1
17875 26 2
17876 4 1
17877 3 1
17878 5 1
17878 9 4
17879 15 5
17879 16 3
17879 17 3
17880 2 1
17881 38 1
17882 4 4
17882 5 22
17882 38 16
17883 2 25
17883 3 41
17883 29 1
17883 34 62
17884 7 1
17884 8 4
17884 22 1
17885 19 1
17886 34 1
17887 4 12
17887 5 68
17887 38 58
17888 7 2
17888 8 1
17889 31 6
17890 21 5
17890 22 9
17891 11 1
17892 29 5
17892 30 3
17893 2 1
17894 21 8
17894 22 3
17895 21 5
17895 22 3
17896 2 1
17897 3 1
17897 22 1
17898 10 1
17898 24 1
17898 34 1
17899 34 1
17900 29 4
17900 34 1
17901 29 13
17902 18 20
17902 19 25
17902 20 5
17903 12 1
17903 16 14
17903 17 19
17904 18 4
17904 19 4
17904 20 4
17905 29 1
17906 9 2
17906 10 1
17906 11 1
17906 18 1
17907 24 1
17908 28 2
17909 22 1
17910 24 2
17910 34 1
17911 4 3
17911 5 9
17911 38 15
17912 38 1
17913 30 1
17914 18 1
17914 31 1
17914 38 1
17915 24 11
17916 21 2
17916 22 2
17917 3 5
17917 34 2
17918 29 3
17918 30 1
17919 29 1
17920 29 4
17921 24 1
17922 20 1
17923 3 1
17924 12 1
17925 31 1
17926 31 3
17927 2 1
17928 3 1
17929 12 1
17929 24 8
17930 18 1
17931 9 20
17931 10 27
17931 11 16
17932 2 1
17932 19 1
17932 24 1
17933 2 12
17933 3 28
17933 31 1
17933 34 30
17934 29 1
17935 24 1
17936 31 17
17937 38 1
17938 24 1
17939 5 1
17940 34 3
17941 21 1
17942 2 1
17943 31 13
17944 2 1
17945 3 1
17945 25 1
17945 26 13
17946 21 6
17946 22 4
17947 4 1
17948 31 1
17949 21 1
17950 2 1
17950 12 3
17950 14 3
17951 29 7
17952 9 1
17953 18 1
17953 21 20
17953 22 11
17954 8 1
17955 18 1
17956 19 1
17957 10 1
17957 11 2
17958 27 1
17958 28 17
17959 2 1
17959 3 1
17959 5 1
17959 21 1
17959 24 1
17959 34 1
17959 38 1
17960 3 1
17960 18 26
17960 19 32
17960 20 18
17961 15 3
17961 16 1
17961 17 1
17962 24 1
17963 29 1
17964 24 1
17965 34 1
17966 24 2
17966 26 2
17966 29 8
17967 3 1
17967 14 1
17967 24 2
17968 7 7
17968 8 20
17969 38 1
17970 29 1
17971 4 1
17971 5 18
17971 34 1
17971 38 19
17972 18 13
17972 19 19
17972 20 4
17973 17 1
17974 7 1
17975 21 2
17975 22 2
17976 3 1
17976 26 1
17977 19 1
17978 5 1
17979 12 6
17979 14 9
17980 29 1
17981 7 1
17982 10 1
17983 12 1
17984 24 1
17985 29 1
17986 18 1
17987 12 1
17988 31 1
17989 28 1
17990 21 1
17991 29 6
17992 18 24
17992 19 28
17992 20 7
17993 2 1
17993 3 1
17993 30 1
17993 34 1
17994 34 1
17995 7 3
17995 8 5
17995 17 1
17995 31 3
17995 34 1
17996 22 1
17997 28 1
17997 38 1
17998 2 1
17999 21 1
18000 38 1
18001 9 8
18001 10 6
18001 11 11
18002 24 1
18003 11 1
18004 2 1
18004 3 1
18005 8 1
18005 26 1
18006 28 1
18006 29 1
18007 3 3
18007 5 1
18007 7 2
18007 8 2
18007 19 1
18007 20 1
18007 28 1
18007 29 1
18007 34 1
18007 38 1
18008 28 6
18009 2 2
18009 3 2
18009 12 1
18009 14 1
18009 16 2
18009 22 1
18009 24 1
18009 34 1
18009 38 1
18010 10 1
18011 2 1
18011 5 1
18011 22 2
18011 34 1
18012 9 21
18012 10 28
18012 11 16
18013 24 1
18014 29 1
18015 12 1
18015 28 4
18016 38 1
18017 34 1
18018 10 1
18018 38 1
18019 19 1
18020 21 26
18020 22 15
18021 1 1
18021 2 10
18021 3 10
18021 25 1
18021 26 8
18021 31 5
18021 34 13
18022 3 1
18022 5 1
18022 34 1
18023 7 1
18023 8 3
18024 26 1
18025 3 1
18026 22 1
18027 18 1
18028 18 1
18029 2 1
18030 38 1
18031 34 1
18032 24 20
18033 12 3
18033 14 3
18034 29 9
18034 30 1
18035 15 1
18035 16 2
18035 17 2
18035 34 1
18036 8 1
18036 18 1
18036 34 1
18037 3 1
18037 18 1
18038 26 3
18039 18 4
18039 19 10
18039 20 4
18040 9 4
18040 10 3
18040 11 2
18041 25 1
18042 2 1
18043 28 1
18043 29 6
18044 3 1
18045 5 1
18046 8 1
18046 24 1
18046 38 1
18047 12 2
18048 16 2
18049 19 1
18050 14 1
18050 29 4
18051 9 5
18051 10 14
18051 11 9
18052 31 6
18053 3 1
18054 3 1
18054 5 4
18054 9 6
18054 10 5
18054 11 5
18054 21 6
18054 22 5
18054 38 4
18055 18 1
18056 15 2
18056 17 2
18056 29 1
18057 17 1
18058 29 1
18059 24 4
18059 28 1
18060 29 13
18060 30 1
18061 15 1
18061 16 1
18062 3 1
18062 24 13
18063 12 1
18064 9 2
18064 10 4
18064 11 1
18065 5 1
18065 38 1
18066 5 2
18066 20 1
18066 28 1
18067 5 1
18068 18 12
18068 19 7
18068 20 8
18068 24 1
18069 24 17
18069 34 1
18070 4 1
18070 5 11
18070 38 4
18071 19 1
18072 24 1
18072 29 26
18073 5 2
18073 9 2
18073 10 5
18073 11 1
18073 21 8
18073 22 5
18073 38 1
18074 3 1
18075 21 5
18075 22 6
18076 31 2
18077 4 1
18077 18 1
18077 22 1
18077 38 1
18078 19 1
18079 3 2
18079 34 1
18080 29 3
18080 31 1
18081 31 4
18082 24 6
18083 3 1
18083 9 1
18084 24 1
18084 31 1
18085 23 2
18085 24 13
18085 29 1
18086 18 1
18087 31 3
18088 5 1
18088 12 1
18088 15 1
18088 18 1
18088 20 1
18089 31 1
18089 38 1
18090 31 1
18091 24 3
18092 7 3
18092 8 1
18092 28 2
18093 29 3
18094 29 1
18095 4 1
18095 5 1
18095 38 5
18096 2 3
18096 3 1
18096 29 1
18096 34 2
18097 24 1
18098 5 3
18098 8 1
18098 38 7
18099 5 3
18099 29 3
18099 38 3
18100 19 2
18100 20 1
18100 21 4
18100 22 1
18101 2 14
18101 3 18
18101 34 36
18102 4 1
18102 5 5
18102 24 6
18102 26 2
18102 38 5
18103 8 1
18104 25 1
18104 26 1
18105 4 10
18105 5 47
18105 38 41
18106 31 3
18107 29 17
18107 30 1
18108 34 1
18109 22 1
18110 18 1
18110 19 3
18110 29 1
18110 31 1
18110 38 1
18111 12 5
18112 34 1
18113 8 1
18113 29 1
18114 34 1
18115 4 8
18115 5 22
18115 38 21
18116 18 12
18117 31 1
18118 4 13
18118 5 35
18118 29 1
18118 38 36
18119 4 1
18119 5 6
18119 17 1
18119 21 8
18119 22 7
18119 38 6
18120 34 1
18121 29 8
18121 30 3
18122 5 1
18123 31 4
18123 38 1
18124 18 1
18125 7 4
18125 8 30
18125 21 1
18126 12 1
18127 29 6
18128 34 1
18129 2 3
18129 3 6
18129 34 5
18130 3 1
18131 29 1
18131 34 1
18132 2 1
18133 4 1
18134 3 3
18134 4 1
18134 5 1
18134 19 1
18134 21 1
18134 25 1
18134 31 1
18134 34 1
18135 22 1
18135 31 19
18136 18 14
18136 19 18
18136 20 6
18137 3 1
18138 34 1
18139 4 1
18139 5 9
18139 38 10
18140 20 1
18140 24 10
18140 31 1
18141 12 1
18142 12 1
18143 29 2
18143 34 1
18144 29 1
18145 22 1
18146 29 9
18146 30 2
18146 34 1
18147 38 1
18148 9 4
18148 10 1
18148 11 2
18149 5 1
18149 24 6
18150 21 1
18151 2 4
18151 3 8
18151 34 9
18152 5 1
18153 12 7
18153 14 2
18154 2 1
18154 29 40
18154 30 2
18155 22 1
18156 16 1
18156 17 1
18157 19 4
18158 29 17
18158 30 2
18159 4 5
18159 5 21
18159 38 24
18160 38 1
18161 4 1
18162 9 2
18162 10 3
18162 11 1
18163 24 5
18164 22 1
18164 24 1
18164 29 1
18164 30 1
18164 38 1
18165 3 1
18165 29 6
18166 34 1
18167 31 1
18168 5 1
18168 29 12
18169 29 1
18170 2 1
18170 7 3
18170 8 9
18170 21 2
18171 14 1
18172 34 1
18173 3 1
18174 38 1
18175 21 2
18176 34 2
18177 1 1
18177 2 15
18177 3 36
18177 29 1
18177 34 44
18177 38 1
18178 29 24
18178 30 1
18179 31 1
18180 18 1
18180 31 1
18181 21 1
18182 3 1
18182 29 1
18182 34 1
18183 21 1
18183 22 4
18184 10 1
18185 29 1
18186 11 1
18187 7 1
18188 2 1
18188 3 2
18188 24 1
18189 3 1
18190 28 1
18191 21 1
18192 10 1
18193 2 1
18193 3 5
18193 10 1
18193 34 7
18194 31 7
18195 9 1
18195 10 1
18195 11 2
18195 31 1
18196 21 1
18196 22 2
18197 21 1
18198 34 1
18199 4 1
18199 5 13
18199 38 9
18200 24 3
18201 28 1
18202 18 1
18203 28 1
18204 20 1
18204 24 4
18205 28 1
18206 14 1
18207 31 5
18208 5 1
18209 15 1
18210 12 4
18210 14 1
18211 5 1
18212 22 1
18213 2 1
18213 4 3
18213 5 13
18213 18 1
18213 38 20
18214 15 10
18214 16 6
18214 17 2
18214 19 1
18215 19 1
18215 21 15
18215 22 10
18216 29 14
18216 30 1
18217 9 1
18218 38 1
18219 18 1
18219 24 1
18219 31 2
18220 2 1
18221 19 1
18221 29 4
18221 30 1
18222 4 1
18222 38 1
18223 26 1
18224 29 16
18224 34 1
18225 28 6
18226 3 1
18227 2 1
18227 10 1
18227 25 1
18227 26 1
18227 31 2
18228 2 5
18228 3 9
18228 34 9
18229 2 1
18229 3 9
18229 34 21
18229 38 1
18230 29 1
18231 29 1
18232 34 1
18233 3 1
18234 34 1
18235 19 1
18236 12 1
18237 34 1
18238 34 1
18239 25 1
18239 26 20
18240 8 1
18241 18 1
18242 28 5
18242 38 1
18243 19 1
18244 24 1
18245 8 1
18246 24 22
18246 34 1
18246 38 1
18247 2 6
18247 3 23
18247 34 16
18248 10 1
18249 2 1
18249 34 1
18250 34 1
18251 9 2
18251 11 1
18252 2 1
18252 3 6
18252 5 1
18252 16 1
18252 24 2
18252 34 3
18252 38 1
18253 24 10
18254 8 1
18255 7 5
18255 8 5
18256 29 1
18257 5 1
18258 2 1
18258 3 2
18258 34 2
18259 29 1
18259 34 1
18260 15 2
18260 16 6
18260 17 6
18260 18 1
18261 7 5
18261 8 5
18261 9 1
18261 12 1
18262 34 1
18263 4 3
18263 5 25
18263 38 30
18264 24 4
18265 5 11
18265 38 10
18266 2 5
18266 3 12
18266 34 9
18267 15 1
18268 7 6
18268 8 28
18268 17 1
18269 5 1
18269 14 1
18270 25 1
18270 26 2
18271 19 2
18271 20 1
18272 12 1
18273 4 6
18273 5 10
18273 34 1
18273 38 12
18274 24 2
18275 22 1
18276 24 4
18277 29 14
18278 4 3
18278 5 5
18278 38 11
18279 19 1
18279 38 1
18280 34 1
18281 7 2
18281 8 2
18282 5 3
18282 38 3
18283 3 1
18283 4 5
18283 5 33
18283 12 1
18283 19 1
18283 34 1
18283 38 27
18284 8 1
18285 12 1
18286 34 1
18287 31 9
18288 31 1
18289 12 6
18289 31 1
18290 3 1
18291 21 5
18291 22 6
18292 29 3
18293 7 2
18293 8 10
18294 3 1
18295 31 1
18296 31 1
18297 5 1
18298 21 1
18299 21 1
18299 29 1
18300 24 1
18300 26 1
18301 29 1
18302 34 1
18303 24 1
18304 18 2
18305 18 10
18305 19 14
18305 20 2
18306 21 1
18307 29 6
18308 31 1
18309 2 1
18310 21 2
18310 22 1
18311 22 1
18312 24 2
18313 3 1
18314 9 1
18315 14 1
18316 34 1
18317 20 1
18317 24 1
18318 28 1
18319 24 14
18320 29 1
18321 12 15
18321 14 17
18322 24 4
18323 2 1
18324 11 1
18325 9 1
18325 24 9
18326 3 1
18327 31 5
18328 26 1
18329 20 1
18329 21 5
18329 22 7
18330 34 1
18331 31 1
18332 18 2
18332 19 2
18332 20 1
18333 34 1
18334 2 1
18335 9 1
18336 3 1
18337 3 1
18338 3 1
18339 4 1
18340 34 1
18341 3 1
18341 28 3
18342 19 1
18343 24 6
18344 19 1
18345 12 11
18345 14 12
18345 29 1
18345 34 1
18346 2 1
18346 14 1
18347 3 1
18348 22 1
18348 34 1
18349 2 1
18349 3 2
18349 34 6
18350 28 2
18351 24 1
18352 21 1
18353 24 11
18354 2 4
18354 3 17
18354 12 1
18354 34 16
18355 29 1
18356 29 1
18357 10 1
18357 18 34
18357 19 62
18357 20 15
18358 29 1
18359 19 1
18360 34 1
18361 34 1
18362 21 1
18363 29 15
18364 5 1
18364 19 1
18365 9 1
18365 10 2
18365 11 1
18366 1 2
18366 2 30
18366 3 28
18366 34 40
18367 19 17
18367 20 3
18368 1 1
18368 2 20
18368 3 15
18368 34 18
18369 24 7
18369 28 1
18370 38 1
18371 34 1
18372 24 1
18373 5 1
18374 5 1
18375 16 1
18376 7 8
18376 8 4
18377 9 1
18378 3 1
18379 28 1
18380 8 1
18381 29 6
18382 7 1
18383 10 1
18383 12 1
18383 22 1
18384 3 5
18384 34 1
18385 3 1
18385 29 3
18386 28 1
18387 2 1
18388 9 12
18388 10 19
18388 11 12
18389 19 1
18389 25 1
18389 26 4
18390 38 1
18391 1 1
18391 2 16
18391 3 29
18391 28 1
18391 34 38
18392 29 1
18393 2 3
18393 3 2
18393 25 1
18393 31 1
18393 34 6
18394 34 1
18395 2 1
18396 18 3
18396 19 2
18396 20 2
18397 15 2
18397 16 1
18397 18 1
18397 38 1
18398 17 1
18399 1 1
18399 2 19
18399 3 21
18399 21 4
18399 34 37
18400 11 1
18400 22 1
18401 20 1
18402 28 1
18403 29 2
18404 12 1
18404 28 5
18405 2 1
18405 28 1
18406 4 4
18406 5 8
18406 38 11
18407 2 4
18407 3 20
18407 5 1
18407 34 24
18408 19 1
18409 31 9
18410 15 5
18410 16 3
18410 17 6
18411 18 1
18412 26 6
18413 18 3
18414 21 1
18415 22 1
18416 29 1
18416 30 1
18417 17 1
18418 21 1
18419 21 8
18419 22 13
18419 29 1
18420 2 1
18421 34 2
18422 24 1
18423 21 15
18423 22 15
18424 2 1
18425 24 1
18425 34 1
18426 3 1
18427 8 1
18428 5 1
18429 28 3
18430 28 1
18431 3 1
18432 14 1
18433 5 1
18434 5 1
18434 38 4
18435 12 1
18435 24 21
18436 3 2
18436 29 4
18437 7 2
18437 8 1
18437 29 1
18438 26 5
18439 22 1
18440 24 7
18441 17 1
18442 18 1
18443 5 1
18443 9 7
18443 10 13
18443 11 16
18443 18 1
18444 5 4
18444 18 1
18444 19 4
18444 20 2
18445 24 10
18446 19 1
18446 29 16
18446 30 1
18447 31 1
18447 34 1
18448 12 1
18449 24 1
18450 5 1
18450 12 21
18450 14 6
18451 2 3
18451 3 6
18451 34 2
18452 26 9
18453 34 1
18454 3 1
18455 5 1
18455 15 7
18455 16 6
18455 17 9
18455 24 11
18455 34 1
18456 34 1
18457 3 1
18457 21 1
18458 25 3
18458 26 4
18458 34 1
18459 29 1
18460 7 1
18460 9 1
18460 10 1
18461 14 1
18462 2 8
18462 3 13
18462 34 18
18463 2 7
18463 3 18
18463 34 20
18464 2 3
18464 3 3
18464 34 5
18465 26 1
18466 38 1
18467 38 1
18468 8 5
18468 31 1
18469 18 1
18470 5 1
18471 21 4
18471 22 7
18472 34 1
18473 22 1
18474 15 1
18474 16 1
18475 11 1
18475 28 1
18476 15 1
18476 24 5
18477 21 1
18478 29 4
18478 34 1
18479 3 1
18479 31 1
18480 3 1
18481 4 1
18482 31 1
18483 15 16
18483 16 9
18483 17 10
18484 15 1
18485 19 1
18485 20 1
18486 2 1
18486 3 2
18486 29 1
18486 34 3
18487 5 1
18488 29 2
18488 30 1
18488 31 1
18489 5 2
18490 18 1
18490 20 1
18490 24 1
18491 18 1
18492 4 5
18492 5 7
18492 38 7
18493 2 1
18493 26 1
18494 18 1
18495 19 1
18496 3 1
18496 5 1
18496 17 1
18496 21 2
18497 15 1
18498 9 1
18499 15 2
18499 17 1
18500 1 1
18500 2 1
18500 3 3
18500 24 1
18500 34 2
18501 3 1
18502 29 10
18502 30 1
18503 24 1
18504 38 1
18505 16 1
18505 17 2
18505 24 1
18506 12 1
18507 21 13
18508 9 1
18509 4 5
18509 5 20
18509 29 16
18509 30 2
18509 38 15
18510 34 1
18511 20 1
18512 29 1
18513 34 1
18514 34 1
18515 24 1
18516 9 41
18516 10 30
18516 11 31
18517 3 1
18518 12 1
18519 3 1
18520 21 1
18521 34 1
18522 5 1
18522 11 5
18522 15 15
18522 16 15
18522 17 8
18523 5 1
18524 29 1
18525 3 1
18526 2 2
18526 3 4
18526 16 1
18526 29 3
18526 31 3
18526 34 9
18527 24 10
18527 34 1
18528 5 1
18529 31 1
18530 1 1
18530 5 5
18530 38 8
18531 29 12
18531 30 1
18531 31 2
18532 29 8
18532 30 1
18533 29 9
18534 21 1
18535 11 1
18536 34 2
18537 34 1
18538 16 2
18538 17 1
18539 21 1
18540 34 1
18541 2 7
18541 3 17
18541 34 14
18542 22 1
18543 2 1
18544 31 5
18544 33 1
18544 34 1
18544 38 1
18545 5 1
18546 1 4
18546 2 29
18546 3 42
18546 34 51
18547 5 4
18547 38 6
18548 24 1
18548 29 8
18549 29 1
18550 21 7
18550 22 5
18551 18 2
18551 19 3
18551 20 2
18552 3 1
18553 3 1
18554 38 1
18555 3 1
18555 10 1
18555 26 7
18555 31 1
18555 38 2
18556 2 1
18556 19 1
18556 29 1
18557 31 1
18558 34 1
18559 16 1
18559 18 1
18560 1 1
18560 2 3
18560 3 11
18560 24 1
18560 34 7
18561 31 1
18562 38 1
18563 12 4
18563 14 3
18564 34 1
18565 17 1
18566 12 5
18566 14 3
18567 21 1
18568 24 21
18569 17 1
18570 26 2
18571 16 1
18571 17 2
18572 28 1
18572 29 51
18572 30 2
18573 4 1
18574 5 1
18574 16 1
18575 2 8
18575 3 9
18575 34 18
18576 12 9
18576 13 1
18576 14 12
18576 34 1
18577 18 1
18578 4 5
18578 5 15
18578 38 14
18579 12 1
18580 5 1
18580 28 2
18581 2 1
18582 12 3
18582 14 3
