%%MatrixMarket matrix coordinate real general
%
21827 38 45424                                                    
1 7 2
1 8 3
2 12 1
3 4 1
3 21 1
4 9 1
5 18 1
6 34 1
7 3 1
8 29 13
8 30 1
9 21 2
9 38 1
10 2 1
11 24 4
12 3 1
12 15 2
12 16 5
12 17 6
13 3 1
13 10 1
14 3 1
15 29 1
16 3 2
16 12 1
16 14 1
16 24 1
16 34 2
16 38 4
17 21 2
17 29 19
18 29 9
19 34 1
20 29 8
20 30 3
21 5 1
22 12 1
23 29 20
23 30 2
24 18 1
24 26 1
24 34 1
25 21 1
26 8 1
26 17 1
27 3 1
27 18 1
28 2 7
28 3 9
28 34 18
29 22 1
30 3 1
30 7 1
31 29 1
32 3 1
32 34 1
33 4 5
33 5 14
33 38 8
34 12 9
34 14 2
35 2 1
35 21 1
36 23 1
36 24 32
37 28 4
37 29 1
38 34 1
39 24 2
40 7 12
40 8 16
41 10 1
41 24 2
42 24 1
43 3 1
43 28 1
44 2 1
44 3 17
44 19 1
44 34 11
45 38 1
46 19 1
47 1 1
47 2 12
47 3 21
47 8 1
47 34 28
48 3 1
48 5 2
48 24 1
48 38 1
49 3 1
49 12 1
50 20 1
51 22 1
52 21 1
53 21 1
54 29 13
55 12 10
55 14 6
56 25 2
56 26 4
56 28 7
57 3 1
58 8 1
59 24 1
60 1 1
60 2 4
60 3 7
60 34 10
61 19 1
62 29 1
63 4 1
63 29 5
64 28 4
64 29 1
65 26 1
65 31 4
66 12 1
66 16 2
66 17 3
67 5 2
68 11 1
69 3 1
69 19 1
69 24 1
70 3 1
71 4 2
71 5 27
71 38 45
72 31 2
73 3 1
74 28 1
75 3 1
76 2 1
76 18 1
77 2 1
77 3 2
77 9 1
77 19 1
77 24 1
77 31 2
77 34 1
78 7 3
79 3 1
79 4 3
79 5 7
79 38 11
80 24 2
81 26 1
82 3 1
83 34 1
84 17 1
84 21 1
85 30 1
86 26 1
87 5 1
88 24 1
89 34 1
90 19 1
90 29 1
91 38 1
92 20 1
92 34 1
93 23 1
94 2 1
94 11 1
94 19 1
94 21 1
94 29 1
94 34 1
95 24 2
96 5 1
96 24 6
97 5 1
98 28 1
98 29 1
99 18 5
99 19 6
99 38 1
100 18 1
100 34 1
101 3 2
102 5 1
103 10 1
104 38 1
105 14 1
106 15 1
106 28 1
107 8 1
108 31 9
108 34 1
109 28 1
110 29 1
111 24 1
111 29 1
111 31 2
112 20 1
113 19 1
113 28 2
114 12 56
114 13 3
114 14 43
114 34 1
115 21 1
116 2 1
117 18 1
118 38 1
119 22 1
119 28 5
120 20 2
121 24 1
122 21 1
123 23 1
123 24 8
124 18 1
125 8 1
125 9 5
125 10 15
125 11 8
126 29 1
127 22 1
128 24 3
129 4 6
129 5 23
129 38 26
130 9 1
131 28 2
131 31 6
132 34 1
133 4 1
133 24 4
134 10 1
134 24 1
135 9 1
136 4 8
136 5 45
136 11 1
136 38 43
137 4 2
137 5 7
137 21 11
137 22 6
137 38 5
138 2 1
138 3 17
138 34 11
139 3 1
140 18 1
141 3 2
141 34 1
141 38 1
142 38 1
143 38 1
144 3 1
144 24 2
145 3 1
145 12 1
145 34 1
146 4 4
146 5 17
146 24 1
146 38 17
147 34 1
148 24 1
149 11 1
150 28 2
151 5 1
151 15 1
152 9 1
153 7 2
153 8 8
154 38 1
155 2 3
155 3 6
155 4 2
155 5 1
155 19 3
155 24 5
155 34 15
155 38 1
156 4 7
156 5 17
156 11 1
156 38 15
157 5 1
157 38 1
158 12 1
159 29 1
160 9 1
160 10 4
160 11 6
160 16 1
161 14 1
162 19 1
163 11 1
164 5 1
164 38 1
165 21 1
166 24 1
167 1 1
167 2 2
167 3 5
167 34 9
168 24 1
169 8 1
169 34 1
170 3 2
170 19 1
171 12 19
171 14 10
172 24 1
173 29 1
174 18 1
174 28 6
174 34 1
175 20 1
176 28 1
177 38 1
178 3 1
178 4 1
178 5 2
178 14 1
178 19 1
178 21 1
178 24 1
178 31 1
178 38 1
179 15 15
179 16 4
179 17 6
180 29 1
181 2 1
182 2 1
182 4 1
182 21 10
182 22 9
182 24 1
183 3 1
183 10 1
183 15 1
184 4 11
184 5 46
184 29 1
184 38 35
185 3 1
186 5 1
187 14 1
188 24 11
189 31 1
190 34 1
191 29 1
191 30 1
192 18 2
193 34 1
194 15 5
194 16 1
194 17 8
195 24 5
196 20 1
196 24 15
196 38 1
197 24 14
198 3 1
199 3 1
200 18 1
201 7 7
201 8 11
201 31 1
202 12 1
202 18 1
203 3 2
204 29 2
205 3 1
205 7 1
205 31 1
206 2 1
207 34 2
208 3 1
208 29 8
208 34 1
209 8 1
210 1 1
210 2 17
210 3 40
210 8 1
210 34 35
211 38 1
212 3 1
213 34 1
214 18 18
214 19 17
214 20 9
214 34 1
215 18 9
215 19 11
215 20 3
216 24 1
217 3 1
218 24 1
219 18 24
219 19 21
219 20 4
220 3 1
220 5 1
220 21 32
220 22 22
221 18 1
222 4 1
222 19 1
223 18 1
223 19 3
223 20 1
223 21 1
223 24 4
223 31 1
224 14 1
225 29 15
225 30 1
226 3 1
226 4 1
226 5 1
226 11 2
226 18 1
226 19 3
226 21 2
226 22 1
226 29 1
226 34 2
227 3 2
227 38 1
228 5 1
228 18 1
229 38 1
230 22 1
231 34 1
232 2 4
232 3 4
232 34 7
233 2 1
234 29 2
235 5 1
236 4 2
236 5 9
236 7 4
236 8 21
236 38 12
237 8 1
237 34 1
237 38 1
238 3 1
238 8 3
239 7 1
240 2 1
241 21 1
242 18 1
243 31 2
244 5 1
245 10 1
246 2 6
246 3 11
246 10 1
246 34 18
247 24 9
248 5 2
248 38 1
249 3 1
250 4 3
250 5 36
250 18 1
250 34 1
250 38 24
251 4 1
252 29 1
253 24 1
254 29 1
255 3 1
256 29 19
257 29 2
257 30 1
258 24 7
259 7 3
259 8 2
260 2 8
260 3 9
260 34 7
261 12 1
261 19 1
261 34 1
262 28 1
263 2 27
263 3 37
263 5 6
263 34 63
263 38 5
264 1 2
264 2 27
264 3 31
264 34 62
265 34 1
266 29 2
267 19 1
268 12 30
268 13 2
268 14 17
269 18 2
269 19 2
270 15 10
270 16 10
270 17 8
271 34 1
272 29 15
272 30 1
273 18 23
273 19 35
273 20 7
274 29 18
275 28 1
276 25 1
276 26 2
277 14 1
278 29 1
279 29 1
280 31 1
281 15 17
281 16 11
281 17 3
282 2 9
282 3 17
282 34 22
283 2 1
283 29 63
283 30 6
283 34 1
284 7 1
284 8 2
285 38 1
286 28 1
286 29 1
287 4 2
287 5 16
287 29 1
287 38 19
288 18 1
289 4 1
289 34 2
289 38 3
290 31 8
291 15 1
292 5 1
292 22 18
292 24 1
293 2 3
293 3 7
293 20 1
293 34 10
294 26 1
295 5 1
296 5 1
296 8 1
296 22 1
296 24 1
296 26 1
296 31 1
297 2 1
297 4 1
297 5 2
297 8 1
297 10 1
297 11 1
297 14 1
297 21 1
297 24 2
297 31 1
297 38 1
298 24 1
299 34 1
300 18 1
301 5 7
301 24 1
301 38 11
302 28 1
302 34 1
303 22 1
304 3 1
305 2 1
306 2 4
306 3 2
306 34 2
307 2 1
307 3 1
307 5 2
307 7 1
307 14 1
307 15 1
307 18 1
307 19 1
307 24 1
307 31 2
307 34 1
307 38 2
308 14 1
308 21 1
308 38 1
309 19 1
310 10 1
311 11 1
311 12 1
311 19 1
311 29 1
311 38 1
312 3 1
313 31 1
314 29 3
315 2 1
315 19 1
316 2 1
317 24 1
318 11 1
318 17 1
319 21 1
319 38 1
320 3 2
320 4 1
320 5 2
320 7 1
320 8 3
320 11 1
320 18 1
320 21 1
320 22 1
320 24 3
320 29 1
320 34 4
320 38 2
321 7 2
321 9 7
321 10 7
321 11 6
322 24 1
323 29 6
324 38 1
325 3 1
325 19 2
325 24 1
325 29 1
325 34 1
325 38 1
326 9 3
326 10 7
326 11 5
326 19 1
327 8 1
327 19 1
328 5 1
329 5 2
329 8 1
330 21 1
331 2 1
331 29 1
332 11 1
333 22 1
334 34 1
335 38 1
336 2 1
336 3 1
337 3 1
338 9 1
339 4 1
339 5 8
339 38 17
340 12 1
340 20 1
341 21 1
342 3 1
343 29 21
343 30 1
343 34 1
344 38 1
345 22 1
345 29 15
346 26 2
347 2 3
347 3 8
347 34 15
348 3 1
349 29 9
349 30 3
350 18 1
351 29 1
352 2 1
352 3 1
352 4 1
352 10 1
352 12 1
352 14 1
352 18 1
352 19 3
352 21 1
352 29 1
352 34 3
352 38 2
353 2 14
353 3 30
353 34 15
354 34 1
355 18 1
356 31 11
357 21 14
357 22 10
358 24 4
358 38 1
359 21 1
360 5 1
360 38 1
361 4 7
361 5 16
361 12 1
361 38 19
362 31 7
363 3 1
363 5 1
364 2 4
364 3 12
364 34 16
364 38 1
365 24 1
366 3 1
366 8 1
366 18 1
366 28 10
367 21 20
367 22 14
368 24 1
369 14 1
369 18 1
369 21 8
369 22 18
370 16 1
370 34 1
371 14 1
372 21 1
372 22 1
373 18 6
373 19 3
373 20 1
374 4 1
374 5 2
374 18 1
374 28 3
375 9 1
375 34 1
376 19 1
377 18 3
377 19 1
377 20 1
378 29 9
378 30 2
379 3 1
380 19 1
380 31 2
380 34 1
381 1 1
381 2 2
381 3 4
381 34 14
382 31 1
383 20 1
384 28 1
385 34 2
386 10 2
386 11 1
387 20 2
387 29 1
388 34 1
389 24 1
390 12 1
390 14 2
390 18 1
390 22 1
391 19 1
392 19 1
393 28 4
393 34 1
394 3 1
394 18 1
394 19 1
394 28 2
395 2 1
395 28 5
396 3 1
397 24 1
398 12 1
399 2 8
399 3 3
399 5 1
399 34 4
400 38 1
401 34 1
402 2 15
402 3 50
402 11 1
402 34 47
403 3 1
404 7 1
405 1 1
405 2 5
405 3 6
405 34 12
406 2 1
406 19 1
406 31 3
407 24 1
407 38 1
408 24 1
409 20 1
410 21 1
410 34 1
411 15 2
411 24 1
412 22 1
413 3 1
413 29 1
413 30 1
414 3 3
414 38 1
415 4 7
415 5 23
415 38 23
416 21 4
416 22 4
417 14 1
418 38 1
419 21 10
419 22 8
420 5 1
421 9 3
421 10 8
421 11 9
422 2 1
423 31 3
424 22 1
425 16 1
426 29 20
427 3 1
427 38 1
428 3 1
429 7 1
429 8 2
429 15 1
430 9 3
430 11 1
430 38 2
431 4 9
431 5 41
431 38 50
432 19 1
433 18 12
433 19 10
433 20 2
434 34 1
435 17 1
436 18 9
436 19 12
436 20 4
437 34 1
438 34 1
439 19 1
440 5 1
441 5 1
442 31 3
442 38 1
443 4 9
443 5 22
443 18 1
443 38 23
444 20 1
445 9 1
445 11 1
446 9 2
446 10 3
446 11 2
447 12 3
447 14 3
447 38 1
448 18 1
449 17 1
450 4 1
450 5 13
450 38 14
451 2 17
451 3 27
451 5 6
451 34 22
451 38 9
452 8 1
453 38 1
454 24 22
455 24 2
455 26 3
455 31 1
455 38 1
456 29 11
457 3 1
457 24 2
458 3 1
458 7 1
458 20 1
458 24 21
459 3 1
459 24 24
460 24 11
460 28 5
461 31 1
462 31 16
463 21 1
464 12 19
464 14 20
465 21 1
466 19 1
467 2 1
468 12 1
468 18 1
469 2 1
470 19 1
470 28 1
470 29 1
471 31 1
472 17 1
472 28 2
473 2 1
473 3 1
473 34 1
474 19 1
474 24 1
474 29 15
474 30 2
475 7 30
475 8 46
475 14 1
476 1 1
476 2 8
476 3 26
476 24 1
476 34 26
477 2 1
478 7 1
479 19 1
480 24 1
481 5 1
482 2 1
482 29 17
482 30 2
483 29 1
484 19 1
484 22 1
484 24 2
484 34 1
484 38 2
485 3 1
485 21 1
485 31 1
486 16 1
486 29 1
487 3 1
488 18 19
488 19 24
488 20 7
489 31 12
490 7 6
491 5 1
492 12 1
493 3 1
494 2 14
494 3 19
494 34 34
495 12 10
495 14 8
495 34 1
496 2 1
496 14 1
496 17 1
496 18 1
497 29 1
498 19 1
499 12 1
500 31 7
501 19 1
502 22 1
503 20 1
504 34 1
505 22 1
506 3 1
507 19 1
508 34 1
509 31 1
509 34 2
510 7 1
511 19 1
513 18 13
513 19 14
513 20 4
514 22 1
514 29 1
515 4 1
516 31 1
517 34 2
517 38 1
518 2 1
519 16 1
519 18 4
519 19 5
519 20 1
520 19 1
521 19 1
522 2 1
523 18 1
524 12 1
524 21 1
525 18 1
526 18 12
526 19 12
526 20 3
527 4 3
527 5 5
527 38 8
528 4 9
528 5 55
528 38 60
529 4 4
530 38 1
531 3 1
532 29 9
532 30 2
533 10 1
534 3 1
535 18 1
535 24 1
536 38 1
537 23 1
537 24 30
537 26 1
537 38 1
538 8 1
538 15 1
538 21 1
538 34 2
539 38 1
540 12 5
540 13 1
540 14 2
541 5 1
542 15 1
543 24 6
543 28 2
544 24 1
545 2 9
545 3 29
545 34 30
546 11 1
546 14 1
546 15 2
546 19 2
546 21 2
546 28 1
547 34 1
548 3 1
549 19 1
550 12 5
550 14 4
551 2 4
551 3 7
551 4 1
551 34 6
552 9 9
552 10 16
552 11 10
553 7 1
553 10 1
553 19 1
554 21 1
555 7 5
555 8 11
556 21 22
556 22 13
557 34 1
558 20 1
559 8 1
560 1 1
560 2 31
560 3 25
560 34 36
561 5 1
561 12 2
561 16 1
561 18 1
561 20 1
561 29 1
561 38 1
562 34 1
563 3 1
564 23 1
564 24 12
565 18 1
566 7 2
566 8 2
567 28 1
568 38 1
569 3 1
570 26 1
571 8 1
571 15 2
571 16 3
571 17 1
572 19 1
572 38 1
573 4 6
573 5 13
573 38 21
574 19 2
574 21 1
574 24 1
575 12 1
576 4 1
577 17 2
578 24 13
579 18 1
580 8 1
581 29 1
582 38 1
583 22 1
583 29 1
584 5 1
584 7 2
585 5 1
585 15 7
585 16 3
585 17 6
585 38 1
586 2 1
586 3 3
586 8 1
586 24 1
586 34 2
587 24 1
588 15 15
588 16 12
588 17 9
589 38 2
590 18 52
590 19 60
590 20 28
591 24 1
592 2 1
592 34 1
593 34 1
594 1 1
594 2 11
594 3 18
594 34 31
595 1 2
595 2 18
595 3 31
595 34 52
596 8 1
597 18 12
597 19 11
597 20 11
598 26 1
599 19 1
599 34 1
600 18 15
600 19 17
600 20 8
600 26 1
601 2 1
601 9 4
601 10 3
601 11 1
601 17 1
601 19 3
601 20 2
602 12 1
603 5 1
604 5 1
605 4 1
606 15 11
606 16 10
606 17 10
606 21 1
607 5 1
607 12 1
607 14 1
607 38 1
608 3 1
608 5 1
608 12 1
608 18 1
608 20 1
608 22 1
608 30 1
608 34 2
609 29 1
610 24 1
610 28 4
611 9 1
611 21 1
612 24 1
612 31 1
613 28 1
613 29 23
613 30 1
613 31 1
614 34 1
615 17 1
616 34 1
617 2 1
617 3 1
617 5 3
617 8 1
617 17 1
617 19 1
617 28 1
617 29 2
618 3 1
619 7 10
619 8 10
620 12 12
620 14 16
621 18 1
621 24 1
621 31 1
622 28 4
623 18 1
624 15 1
625 12 1
626 20 1
627 29 2
628 10 1
629 7 3
629 8 4
629 15 2
630 19 1
631 5 1
631 21 16
631 22 8
632 18 21
632 19 26
632 20 4
633 2 1
633 19 1
633 24 23
634 3 1
634 14 1
634 19 20
634 20 7
635 19 1
636 34 1
637 19 1
638 12 11
638 14 8
639 38 1
640 38 1
641 2 11
641 3 22
641 14 1
641 24 10
641 34 25
642 34 1
643 3 1
643 28 2
644 29 1
645 12 1
646 29 1
647 3 1
648 2 1
648 3 1
648 10 1
648 18 2
648 34 1
649 29 1
650 5 1
651 38 1
652 31 1
653 34 1
654 29 1
655 31 1
656 18 1
657 14 1
658 18 2
659 34 1
660 38 1
661 4 1
662 7 1
663 19 1
664 29 9
664 38 1
665 31 10
666 14 1
667 3 1
668 4 2
668 5 5
668 8 1
668 38 3
669 2 1
669 11 1
669 14 1
670 7 1
670 8 1
671 18 2
671 19 1
672 11 1
672 14 1
672 19 1
672 21 1
673 4 1
673 7 1
673 11 1
673 16 1
673 22 1
673 24 1
673 34 1
673 38 2
674 2 1
674 24 4
674 31 2
675 15 11
675 16 5
675 17 4
676 2 1
676 31 12
677 3 1
678 5 1
678 21 1
678 22 1
678 24 2
678 34 1
678 38 1
679 26 1
679 34 1
680 1 2
680 2 12
680 3 21
680 34 31
681 5 1
682 19 1
683 34 1
684 2 1
685 2 1
686 10 1
687 12 1
688 14 1
689 2 1
690 34 1
691 24 1
692 24 1
693 29 16
693 30 2
694 14 1
694 19 1
695 3 1
695 21 7
695 22 2
696 29 1
697 29 1
698 3 2
698 26 1
698 31 1
698 34 1
699 3 1
699 7 1
700 24 6
701 21 5
701 22 1
702 12 12
702 13 1
702 14 7
703 11 1
703 21 15
703 22 12
704 10 1
705 21 1
706 24 1
707 10 1
708 8 1
708 12 1
709 3 1
709 5 1
709 19 1
710 4 1
711 21 1
712 19 1
713 5 1
714 4 6
714 5 29
714 8 1
714 38 31
715 2 1
716 29 1
717 12 1
718 31 1
719 7 2
719 8 4
720 12 1
721 11 1
722 19 2
723 19 1
724 8 1
725 15 26
725 16 15
725 17 14
726 18 1
726 38 1
727 1 1
727 2 14
727 3 33
727 34 44
728 3 1
729 38 1
730 31 1
731 5 1
732 31 1
733 2 1
733 22 1
734 20 1
735 12 1
736 28 1
736 31 1
737 28 1
738 31 9
739 9 4
739 10 5
739 11 6
740 25 2
740 26 6
741 34 1
742 17 1
743 5 1
743 8 1
744 24 1
745 2 1
745 3 1
745 4 1
745 8 1
745 18 1
745 19 2
745 34 1
745 38 1
746 3 2
746 5 2
746 34 1
747 38 1
748 5 1
749 34 1
750 2 3
750 3 1
750 10 1
750 34 2
751 7 1
751 30 1
752 29 10
753 24 3
754 28 2
755 24 13
756 31 1
757 2 1
758 18 37
758 19 42
758 20 12
759 2 1
759 8 1
759 10 2
759 29 1
760 28 4
761 3 1
762 24 1
763 23 1
763 24 16
764 4 2
764 5 14
764 38 15
765 26 11
766 31 1
767 31 4
768 23 1
768 24 4
768 26 1
769 3 1
770 24 1
771 9 15
771 10 30
771 11 18
772 8 1
773 3 1
774 38 1
775 9 1
775 10 1
776 17 1
777 14 1
777 38 1
778 3 1
779 34 1
780 8 1
781 24 1
781 28 1
782 38 1
783 8 1
784 3 1
784 5 1
784 12 1
784 20 1
784 24 1
784 38 1
785 38 1
786 2 1
786 21 1
786 38 1
787 5 1
788 21 2
788 22 1
789 1 1
789 3 1
789 18 1
789 31 2
789 34 1
790 18 1
791 4 1
791 5 8
791 12 1
791 15 1
791 38 13
792 22 1
793 3 2
793 7 1
793 8 1
794 24 1
795 2 11
795 3 7
795 34 15
796 34 1
797 24 1
798 9 4
798 10 7
798 11 5
799 22 1
800 24 8
801 19 1
802 34 1
803 4 1
803 17 1
804 3 1
804 18 23
804 19 33
804 20 9
805 24 2
806 16 1
807 14 1
808 22 1
808 28 2
809 34 1
810 12 1
811 5 1
812 15 8
812 16 1
813 5 1
813 17 1
814 4 1
814 5 2
814 7 10
814 8 10
814 19 1
814 22 1
814 38 5
815 4 1
815 19 1
816 28 1
817 38 1
818 18 1
819 5 1
819 18 29
819 19 40
819 20 15
819 24 1
820 1 1
820 2 13
820 3 28
820 34 41
821 12 4
821 14 4
822 19 1
823 31 1
824 29 1
825 26 1
826 22 1
827 8 1
827 18 1
827 20 1
828 19 1
829 34 1
830 19 1
831 18 1
832 24 1
833 5 1
834 34 1
834 38 1
835 9 1
836 3 1
837 10 1
838 15 1
839 3 1
840 9 1
840 28 3
841 22 1
842 29 1
843 38 1
844 1 4
844 2 22
844 3 69
844 34 74
845 31 2
846 10 1
846 31 8
846 34 1
847 34 1
848 2 3
848 3 3
848 10 1
848 11 1
848 14 1
848 17 1
848 20 2
848 24 1
848 26 1
848 29 1
848 34 3
848 38 2
849 29 1
850 2 2
850 3 2
850 7 2
850 8 1
850 15 1
850 21 1
850 29 1
850 30 1
850 34 2
851 4 8
851 5 24
851 7 1
851 34 1
851 38 24
852 29 1
853 3 2
853 18 1
853 21 1
853 29 17
853 30 2
854 31 1
855 19 1
856 5 1
856 28 7
857 29 11
858 28 4
858 29 1
859 5 1
859 31 7
860 34 1
861 18 1
862 12 1
862 19 3
862 34 2
863 12 3
864 8 1
864 9 1
864 10 2
864 11 2
865 3 1
865 4 1
866 31 10
867 3 1
867 20 1
867 30 1
867 31 1
867 38 1
868 24 1
869 4 9
869 5 24
869 38 33
870 24 1
871 17 1
872 11 1
873 12 1
874 34 1
875 3 1
875 18 1
875 24 3
875 31 2
875 34 1
875 38 1
876 3 1
877 24 10
877 38 1
878 29 28
878 30 4
879 34 1
880 3 1
881 38 1
882 15 1
882 16 1
883 5 1
883 7 4
883 8 5
884 23 1
884 24 22
884 26 1
885 29 1
886 24 1
887 22 1
887 34 1
888 31 7
889 26 3
889 29 1
890 19 1
891 24 1
892 2 1
892 3 2
892 9 1
892 24 10
892 34 2
893 5 1
893 22 1
893 31 1
894 3 1
895 30 1
896 29 9
897 4 3
897 5 11
897 19 1
897 38 22
898 3 1
899 3 1
900 34 1
901 11 1
902 14 1
903 1 1
903 2 23
903 3 46
903 34 68
904 24 1
904 34 1
905 7 1
905 24 1
905 31 3
906 19 1
906 29 1
907 2 1
907 38 1
908 7 1
908 8 6
908 9 1
908 24 1
909 24 1
910 15 1
911 2 1
911 3 2
911 34 2
912 20 1
913 3 1
913 5 2
913 10 1
913 16 1
913 19 3
913 20 1
913 29 2
913 34 2
914 31 1
915 34 1
916 29 11
916 38 1
917 3 1
918 24 8
918 34 1
919 2 1
919 12 1
919 31 1
919 34 1
919 38 2
920 24 1
920 29 6
920 34 1
921 19 1
921 21 28
921 22 16
922 21 1
923 24 1
924 21 1
925 21 1
925 22 1
926 26 1
927 12 6
927 14 7
927 34 1
928 28 1
929 4 4
929 5 29
929 38 31
930 34 1
931 31 19
932 3 1
933 8 1
934 29 10
934 30 1
935 12 7
935 13 1
935 14 5
936 34 1
937 1 1
937 2 9
937 3 25
937 34 15
938 4 3
938 5 17
938 21 16
938 38 20
939 34 1
940 5 1
941 9 3
941 10 18
941 11 6
942 13 1
942 29 1
943 24 1
943 29 4
944 38 1
945 18 27
945 19 34
945 20 15
945 38 1
946 9 1
947 31 8
948 12 3
948 14 1
949 2 1
950 14 1
951 11 1
951 31 5
952 15 31
952 16 10
952 17 28
953 5 3
953 21 10
953 22 5
953 34 1
953 38 1
954 4 1
955 29 19
955 30 3
956 24 2
957 34 1
957 38 1
958 1 1
958 2 9
958 3 15
958 18 1
958 24 3
958 34 19
959 29 6
960 3 1
961 3 1
961 34 2
962 31 1
963 12 29
963 13 3
963 14 30
964 24 6
965 31 5
966 22 1
967 9 22
967 10 26
967 11 19
967 12 1
967 38 1
968 24 1
969 2 1
969 17 1
969 38 1
970 10 1
970 23 1
970 26 1
970 29 1
970 38 1
971 2 9
971 3 18
971 34 14
972 2 3
972 3 16
972 18 1
972 34 21
973 29 1
973 30 1
974 21 8
974 22 2
975 15 1
975 31 1
976 18 5
976 19 4
976 20 2
977 12 1
978 21 1
979 12 2
979 15 7
979 16 1
979 17 5
980 34 1
981 31 16
982 9 1
983 3 1
983 18 1
983 24 24
984 19 1
984 28 1
985 21 1
986 28 1
987 7 4
987 8 27
988 16 1
989 4 1
989 5 1
990 14 1
990 15 15
990 16 4
990 17 10
990 30 1
991 3 2
991 5 1
991 18 3
991 19 1
991 21 3
991 28 1
991 29 3
991 30 1
991 34 1
992 21 2
992 22 2
992 38 1
993 2 1
993 3 1
993 8 1
993 14 1
993 17 1
993 18 2
993 21 1
993 29 1
993 34 2
993 38 2
994 21 1
994 29 1
995 12 1
995 18 1
995 22 1
995 26 1
995 31 1
995 38 1
996 3 1
996 28 1
997 24 1
998 31 1
999 14 1
1000 18 1
1000 19 5
1000 20 4
1001 21 7
1001 22 4
1002 3 1
1002 24 1
1003 19 1
1004 21 1
1005 3 1
1005 34 1
1006 18 1
1007 19 1
1008 2 1
1008 21 1
1009 19 1
1010 5 1
1011 3 1
1011 11 1
1012 9 1
1012 11 1
1013 34 2
1014 5 1
1014 12 2
1015 5 1
1016 19 1
1017 2 9
1017 3 17
1017 34 34
1018 8 1
1019 20 2
1020 12 7
1020 13 1
1020 14 3
1021 18 1
1021 19 2
1021 22 1
1022 29 1
1023 9 1
1024 9 2
1024 10 10
1024 11 3
1025 12 1
1026 4 7
1026 5 34
1026 22 1
1026 29 1
1026 34 2
1026 38 49
1027 21 24
1027 22 15
1028 21 1
1029 38 1
1030 3 1
1031 3 1
1031 19 1
1032 12 1
1033 5 1
1033 12 3
1033 14 2
1034 5 2
1035 34 1
1036 5 1
1036 28 8
1036 29 1
1037 5 1
1038 4 10
1038 5 30
1038 38 34
1039 31 3
1040 15 1
1041 8 1
1041 28 1
1042 5 3
1042 19 1
1042 38 6
1043 31 1
1044 5 1
1044 18 1
1045 19 1
1046 29 27
1046 30 1
1047 38 1
1048 7 4
1048 8 7
1049 14 1
1050 21 38
1050 22 23
1051 2 11
1051 3 19
1051 34 18
1052 38 1
1053 3 1
1053 4 3
1053 5 15
1053 38 16
1054 5 1
1055 21 1
1056 23 1
1056 28 1
1057 24 1
1058 15 1
1058 17 1
1059 2 1
1060 12 1
1061 29 1
1062 4 9
1062 5 39
1062 38 32
1063 4 1
1063 5 1
1063 38 2
1064 29 1
1065 18 1
1066 24 2
1066 28 9
1067 15 1
1067 24 1
1067 29 3
1067 34 1
1068 18 1
1069 2 1
1069 29 3
1070 15 32
1070 16 21
1070 17 24
1071 16 1
1072 18 1
1073 10 1
1073 17 1
1074 8 1
1075 34 1
1076 3 1
1077 31 3
1078 9 1
1078 10 2
1079 24 1
1080 24 1
1081 7 5
1081 8 7
1081 18 5
1081 24 2
1081 31 2
1081 34 1
1082 21 1
1083 2 1
1083 8 1
1083 18 1
1083 19 1
1083 34 2
1084 24 10
1085 2 3
1085 3 15
1085 34 17
1086 34 1
1087 7 2
1087 8 1
1087 21 3
1088 3 1
1089 9 1
1089 31 1
1090 7 3
1090 8 10
1090 28 1
1091 22 1
1092 18 1
1093 3 1
1093 4 2
1093 5 7
1093 31 1
1093 38 5
1094 19 1
1094 21 3
1095 20 1
1095 29 1
1096 4 5
1096 5 10
1096 28 6
1096 38 19
1097 28 1
1098 15 32
1098 16 30
1098 17 39
1099 14 1
1099 24 1
1100 4 1
1100 12 1
1100 15 1
1100 16 1
1100 19 1
1100 31 1
1100 38 1
1101 2 1
1101 3 1
1101 5 2
1101 8 1
1101 9 1
1101 12 2
1101 18 2
1101 19 2
1101 20 1
1101 21 1
1101 31 5
1101 34 2
1101 38 2
1102 15 1
1103 3 1
1103 8 1
1104 31 5
1105 28 3
1106 19 1
1106 21 6
1106 22 7
1107 2 1
1108 3 1
1109 2 14
1109 3 24
1109 34 31
1110 3 1
1110 5 1
1110 34 1
1110 38 1
1111 31 1
1112 21 1
1113 24 17
1113 34 1
1114 18 1
1114 24 1
1114 29 1
1114 38 1
1115 4 9
1115 5 24
1115 12 4
1115 14 2
1115 38 47
1116 24 1
1117 10 1
1118 3 2
1118 10 1
1118 20 1
1118 24 1
1118 34 1
1118 38 1
1119 9 8
1119 10 22
1119 11 14
1119 19 1
1120 29 2
1120 30 1
1121 10 1
1122 2 2
1122 3 6
1122 5 2
1122 18 1
1122 19 1
1122 26 1
1122 34 2
1123 3 1
1124 12 21
1124 13 1
1124 14 34
1125 24 1
1126 24 15
1127 10 1
1127 14 1
1128 38 1
1129 20 1
1130 28 2
1131 24 1
1132 18 1
1132 29 1
1133 9 7
1133 10 5
1133 11 8
1133 22 1
1134 2 1
1134 4 1
1134 5 1
1134 8 1
1134 9 1
1134 21 2
1134 29 1
1134 34 1
1134 38 1
1135 14 1
1136 5 1
1137 2 1
1137 31 3
1138 19 1
1138 34 1
1139 19 1
1140 12 1
1140 14 2
1141 26 1
1142 38 1
1143 17 1
1144 8 1
1144 24 11
1145 3 1
1146 38 1
1147 2 1
1148 1 1
1148 2 19
1148 3 44
1148 34 48
1149 7 1
1150 18 5
1150 19 11
1150 20 2
1151 4 1
1151 15 1
1151 18 1
1151 24 1
1151 29 3
1152 34 1
1153 3 1
1153 29 2
1153 34 1
1154 11 1
1155 31 5
1156 3 1
1157 18 1
1158 18 1
1159 3 1
1160 8 1
1160 11 1
1160 29 16
1161 23 1
1161 24 9
1162 29 1
1163 19 1
1164 14 1
1165 3 1
1165 24 1
1166 3 1
1166 21 5
1166 22 5
1167 4 3
1167 5 20
1167 38 29
1168 31 1
1169 38 1
1170 3 1
1170 5 1
1170 8 1
1170 31 10
1171 34 1
1172 29 7
1172 34 1
1173 12 13
1173 14 3
1174 34 1
1175 20 1
1176 18 1
1177 34 1
1178 7 2
1178 8 5
1178 12 1
1179 34 1
1180 1 1
1180 2 3
1180 3 2
1180 8 1
1180 11 1
1180 18 1
1180 31 1
1180 34 1
1181 2 5
1181 3 10
1181 34 14
1182 2 4
1182 3 8
1182 9 1
1182 10 8
1182 11 4
1182 16 1
1182 24 1
1182 31 1
1182 34 7
1183 3 1
1184 3 2
1184 4 1
1184 5 2
1184 8 1
1184 19 1
1184 20 1
1184 29 2
1184 34 2
1184 38 1
1185 3 1
1186 22 1
1187 24 15
1188 2 1
1188 3 1
1188 5 2
1188 12 1
1188 19 1
1188 38 2
1189 18 1
1190 5 1
1191 5 1
1191 18 1
1191 24 1
1191 38 1
1192 2 2
1192 3 1
1192 31 1
1192 34 5
1193 28 1
1194 26 1
1195 4 1
1195 15 2
1195 16 1
1196 8 1
1196 34 2
1197 12 1
1197 24 4
1198 5 1
1199 5 1
1200 34 1
1201 4 7
1201 5 52
1201 21 1
1201 38 62
1202 24 1
1203 15 1
1203 19 1
1204 2 32
1204 3 38
1204 20 1
1204 34 49
1205 2 1
1206 12 1
1207 7 3
1207 8 6
1207 15 9
1207 16 6
1207 17 2
1208 19 1
1209 3 1
1209 23 1
1210 2 1
1211 2 1
1211 5 3
1211 12 1
1211 19 1
1211 21 1
1211 22 1
1211 24 2
1211 34 3
1212 4 4
1212 5 11
1212 38 28
1213 3 1
1214 9 1
1214 10 1
1215 28 2
1216 38 1
1217 3 2
1217 8 1
1217 24 1
1217 29 2
1217 34 1
1217 38 2
1218 3 1
1219 31 1
1220 5 1
1220 10 1
1220 18 2
1220 19 5
1220 20 3
1220 34 1
1221 3 1
1222 18 1
1223 31 8
1224 18 1
1225 3 1
1226 24 1
1226 28 1
1226 31 4
1227 21 16
1227 22 7
1228 8 1
1228 10 1
1228 12 1
1228 14 1
1228 21 2
1228 24 1
1228 31 1
1229 3 1
1230 21 1
1231 2 1
1231 9 1
1231 12 1
1231 24 1
1232 15 1
1233 5 6
1233 38 10
1234 2 1
1235 2 16
1235 3 25
1235 18 1
1235 34 37
1236 31 2
1236 34 1
1237 14 2
1237 18 3
1237 21 1
1237 29 1
1238 9 3
1238 10 2
1238 11 3
1239 22 1
1240 3 1
1241 38 1
1242 31 1
1243 34 1
1244 29 1
1245 3 1
1245 19 1
1246 2 1
1247 21 16
1247 22 26
1248 5 1
1249 38 1
1250 38 1
1251 18 2
1251 24 1
1252 29 1
1253 18 1
1254 18 35
1254 19 43
1254 20 10
1254 29 13
1254 34 1
1255 15 1
1256 24 1
1257 8 1
1258 24 4
1259 34 1
1260 2 1
1260 3 2
1260 8 1
1260 21 1
1260 24 1
1261 24 16
1261 38 1
1262 20 1
1263 7 8
1263 8 4
1264 20 1
1264 34 1
1265 10 1
1265 21 13
1265 22 3
1266 3 3
1266 5 1
1266 31 1
1266 34 2
1267 15 1
1268 34 1
1269 15 2
1270 9 2
1270 10 4
1270 11 1
1271 15 1
1272 11 1
1273 3 1
1273 9 3
1273 10 1
1273 11 3
1273 15 1
1273 16 1
1273 17 7
1273 28 1
1273 29 1
1273 31 1
1274 29 1
1275 8 1
1275 31 4
1276 31 1
1277 19 1
1278 15 19
1278 16 14
1278 17 10
1279 21 1
1280 5 1
1280 24 23
1281 29 10
1281 30 1
1282 10 1
1283 5 2
1283 7 1
1283 9 1
1283 19 1
1283 20 2
1283 24 2
1284 26 1
1285 3 1
1285 14 1
1285 27 1
1285 28 9
1286 24 1
1287 2 2
1287 29 1
1288 12 10
1288 14 2
1289 24 1
1290 22 1
1290 29 1
1290 34 1
1291 19 3
1291 20 1
1291 34 1
1292 34 1
1293 2 7
1293 3 14
1293 34 11
1294 14 1
1295 28 8
1296 38 1
1297 28 1
1298 3 1
1299 38 1
1300 34 1
1301 3 1
1301 29 3
1301 31 13
1302 38 1
1303 12 1
1304 38 1
1305 34 1
1306 3 1
1306 29 25
1306 30 1
1307 7 1
1307 10 3
1307 11 1
1307 29 4
1307 31 1
1308 12 11
1308 14 8
1309 19 1
1310 38 1
1311 29 1
1312 4 1
1312 23 1
1313 12 1
1314 24 28
1315 21 16
1315 22 7
1316 31 3
1317 31 6
1317 32 1
1318 31 4
1319 9 1
1320 18 1
1321 12 1
1321 21 6
1321 22 5
1322 3 1
1323 34 1
1324 29 6
1325 24 1
1326 34 1
1327 2 1
1327 3 2
1327 16 1
1327 20 1
1327 34 1
1328 2 10
1328 3 9
1328 29 1
1328 34 16
1329 2 14
1329 3 15
1329 34 22
1330 28 1
1331 34 2
1331 38 1
1332 18 9
1332 19 5
1332 20 2
1333 9 1
1333 14 1
1333 29 1
1334 34 1
1335 21 26
1335 22 18
1336 14 1
1337 7 2
1337 8 1
1338 12 1
1339 34 1
1340 21 1
1341 24 1
1342 21 1
1343 5 1
1344 28 1
1345 29 1
1346 29 1
1347 12 1
1348 3 2
1349 2 19
1349 3 36
1349 12 1
1349 14 1
1349 18 1
1349 19 1
1349 21 2
1349 34 32
1349 38 3
1350 14 1
1351 5 1
1352 15 1
1353 21 1
1354 24 1
1355 12 1
1355 23 1
1355 24 14
1355 38 1
1356 3 1
1356 4 1
1357 4 6
1357 5 37
1357 38 39
1358 3 1
1358 10 1
1358 21 1
1358 22 1
1358 24 2
1358 31 1
1358 34 2
1358 38 1
1359 20 1
1360 24 3
1361 29 1
1362 34 1
1363 21 1
1364 10 3
1364 11 4
1365 18 1
1366 3 1
1366 24 1
1366 29 1
1367 5 1
1367 28 6
1367 34 1
1368 24 1
1369 38 1
1370 20 1
1371 28 5
1372 31 1
1372 38 1
1373 29 1
1374 18 1
1375 10 1
1375 29 15
1375 30 1
1376 12 13
1376 13 1
1376 14 10
1377 24 5
1378 2 1
1378 12 11
1378 14 6
1378 34 1
1378 38 1
1379 5 1
1379 19 4
1379 20 1
1379 29 1
1380 5 2
1380 12 4
1380 14 2
1380 38 7
1381 31 1
1382 13 1
1382 14 2
1382 19 1
1383 9 8
1383 10 12
1383 11 7
1383 18 47
1383 19 30
1383 20 8
1383 22 1
1384 24 5
1385 8 1
1385 34 1
1386 29 5
1386 30 1
1387 24 7
1388 2 6
1388 3 12
1388 34 23
1388 38 1
1389 4 4
1389 5 14
1389 38 19
1390 3 1
1391 3 1
1392 2 15
1392 3 13
1392 34 17
1393 19 1
1393 31 9
1394 24 4
1395 2 11
1395 3 7
1395 34 11
1396 12 13
1396 14 17
1396 18 1
1397 18 1
1397 20 1
1398 2 1
1398 31 1
1399 38 1
1400 7 1
1400 24 21
1401 5 5
1401 38 5
1402 2 1
1402 5 1
1402 29 1
1402 31 12
1403 31 6
1404 12 21
1404 13 1
1404 14 15
1405 28 1
1406 24 17
1406 29 1
1406 34 1
1407 29 2
1408 20 1
1409 4 17
1409 5 61
1409 34 1
1409 38 91
1410 2 1
1410 34 1
1411 29 1
1412 24 1
1412 29 1
1412 31 1
1413 3 2
1413 8 1
1413 19 1
1413 21 2
1414 1 2
1414 2 38
1414 3 65
1414 34 75
1415 1 1
1415 2 3
1415 3 4
1415 12 2
1415 14 2
1415 19 1
1415 34 5
1416 18 81
1416 19 77
1416 20 14
1417 9 1
1417 23 1
1417 24 28
1417 38 1
1418 4 3
1418 5 9
1418 38 8
1419 31 1
1420 24 1
1421 16 1
1422 5 1
1423 3 1
1424 24 6
1425 19 1
1426 21 1
1427 15 4
1427 16 2
1427 17 1
1427 21 7
1427 22 5
1428 3 2
1428 5 1
1428 21 11
1428 22 12
1429 4 3
1429 5 37
1429 14 1
1429 38 32
1430 5 1
1431 12 1
1431 14 3
1432 21 1
1433 38 1
1434 24 5
1435 34 1
1436 2 15
1436 3 38
1436 5 1
1436 14 2
1436 34 51
1437 3 1
1438 38 1
1439 2 1
1440 12 2
1440 14 2
1440 38 1
1441 4 3
1441 5 8
1441 38 8
1442 5 1
1443 7 1
1444 2 1
1444 3 2
1444 10 1
1444 11 1
1444 15 1
1444 19 1
1444 24 2
1444 31 1
1444 34 1
1445 15 1
1446 3 1
1446 4 1
1446 5 7
1446 38 10
1447 29 1
1448 2 1
1448 3 1
1448 5 1
1448 10 2
1448 18 1
1448 19 1
1448 21 1
1448 30 1
1448 34 3
1449 15 9
1449 16 3
1449 17 9
1449 19 1
1450 3 2
1451 29 10
1451 30 1
1452 3 1
1452 4 1
1452 9 1
1452 11 1
1452 18 1
1453 5 1
1454 24 9
1455 2 1
1455 34 1
1456 22 1
1457 18 1
1458 20 1
1458 22 1
1459 10 1
1459 26 3
1459 29 2
1459 30 1
1460 24 1
1461 21 1
1462 8 1
1463 9 1
1463 12 14
1463 14 20
1464 28 1
1465 7 20
1465 8 29
1465 31 1
1466 19 1
1467 14 1
1468 5 1
1469 7 1
1470 7 1
1471 12 6
1471 14 2
1472 38 1
1473 31 2
1474 29 1
1475 24 1
1475 26 5
1475 28 1
1475 31 2
1476 3 1
1476 29 7
1476 38 1
1477 29 13
1477 30 1
1477 34 1
1478 38 1
1479 28 1
1480 5 1
1480 22 1
1481 18 1
1482 19 1
1483 7 8
1483 8 12
1484 20 1
1485 31 1
1486 24 1
1487 38 1
1488 4 3
1488 5 15
1488 38 24
1489 9 1
1489 38 1
1490 5 1
1491 10 1
1491 11 1
1491 18 1
1491 34 1
1492 31 1
1493 3 1
1494 4 1
1494 5 1
1494 29 1
1494 38 4
1495 3 1
1495 12 8
1495 14 1
1495 20 1
1495 34 1
1496 18 1
1497 7 1
1498 18 3
1498 19 3
1499 3 1
1500 34 1
1501 2 12
1501 3 14
1501 19 1
1501 31 1
1501 34 20
1502 16 1
1502 34 2
1502 38 1
1503 3 2
1503 12 1
1503 20 2
1504 2 1
1505 15 1
1506 28 1
1507 19 1
1508 21 5
1508 22 4
1509 21 2
1509 22 1
1510 19 1
1510 22 1
1510 24 1
1510 28 1
1511 29 1
1512 24 20
1513 24 1
1513 29 21
1513 30 2
1514 29 1
1515 34 1
1516 3 1
1517 28 2
1518 2 1
1519 9 7
1519 10 13
1519 11 8
1519 29 1
1520 4 1
1520 16 1
1521 4 1
1521 12 6
1521 14 5
1521 34 2
1522 3 1
1523 3 1
1523 5 1
1523 38 1
1524 29 1
1525 34 1
1526 5 2
1526 11 1
1526 19 1
1526 31 2
1527 4 12
1527 5 59
1527 38 57
1528 24 13
1529 18 32
1529 20 11
1530 24 2
1531 17 1
1532 30 1
1533 34 1
1534 9 1
1534 10 4
1534 11 4
1535 11 1
1535 24 8
1536 38 1
1537 2 1
1538 31 1
1539 19 1
1540 12 1
1540 19 1
1540 24 1
1540 26 1
1540 31 1
1540 38 1
1541 21 1
1541 38 1
1542 7 2
1542 11 1
1542 23 1
1542 24 12
1543 14 2
1544 3 1
1544 19 1
1545 3 4
1545 7 1
1545 12 1
1545 18 2
1545 22 1
1545 24 2
1545 29 1
1545 34 3
1545 38 2
1546 31 7
1547 24 1
1548 24 1
1549 5 1
1550 28 2
1551 29 18
1551 30 1
1552 21 10
1552 22 3
1553 2 17
1553 3 26
1553 34 33
1554 2 1
1555 31 18
1555 34 1
1556 4 1
1557 3 1
1558 5 1
1559 5 1
1559 18 1
1559 19 1
1559 24 2
1560 34 1
1561 2 10
1561 3 31
1561 18 1
1561 34 47
1562 24 1
1563 3 1
1563 5 3
1563 34 1
1563 38 3
1564 21 1
1565 19 1
1566 18 1
1567 4 1
1568 2 1
1569 2 1
1569 3 2
1570 29 6
1571 18 1
1571 31 1
1572 2 1
1573 7 19
1573 8 36
1573 9 1
1573 22 1
1574 14 1
1574 34 1
1575 34 1
1576 31 1
1577 21 1
1577 26 1
1578 10 4
1578 11 1
1579 7 3
1579 8 5
1579 16 1
1580 28 6
1581 3 1
1582 31 1
1583 15 11
1583 16 10
1583 17 8
1584 15 35
1584 16 22
1584 17 21
1585 24 1
1586 2 1
1587 17 1
1588 34 1
1589 21 1
1589 22 8
1590 31 1
1591 29 1
1592 23 2
1592 24 13
1593 34 1
1594 31 7
1595 3 2
1595 5 3
1595 10 1
1595 18 1
1595 26 1
1595 31 1
1595 34 4
1595 38 2
1596 12 1
1597 31 9
1598 5 1
1599 8 1
1599 31 2
1600 4 1
1601 19 1
1602 26 1
1603 38 1
1604 3 1
1604 21 22
1604 22 15
1605 4 23
1605 5 72
1605 34 1
1605 38 92
1606 24 1
1606 38 1
1607 4 5
1607 5 24
1607 38 29
1608 38 1
1609 38 1
1610 12 1
1610 24 1
1611 18 3
1611 21 2
1612 8 2
1613 24 1
1614 38 1
1615 4 6
1615 5 39
1615 38 31
1616 5 1
1616 18 2
1616 19 5
1617 12 1
1617 34 1
1618 12 1
1619 19 1
1620 2 1
1620 24 4
1620 29 2
1620 34 4
1620 38 1
1621 23 1
1621 24 20
1622 24 1
1623 21 1
1624 22 8
1625 5 1
1626 3 1
1626 5 2
1626 18 1
1626 19 1
1626 21 1
1626 24 1
1626 31 1
1627 4 4
1627 5 43
1627 38 31
1628 18 7
1628 19 19
1628 20 2
1629 24 1
1630 9 16
1630 10 31
1630 11 10
1630 34 1
1631 18 1
1631 24 2
1631 29 4
1631 31 6
1632 34 1
1633 9 5
1633 10 6
1633 11 3
1633 24 1
1634 19 1
1634 28 3
1634 38 1
1635 23 1
1635 24 10
1636 24 2
1637 29 1
1638 5 1
1638 31 10
1639 3 2
1639 20 1
1639 21 2
1640 19 1
1640 24 2
1641 18 1
1641 23 2
1641 24 1
1642 5 1
1642 21 4
1642 22 4
1643 2 1
1643 5 1
1644 20 1
1645 19 1
1646 2 7
1646 3 21
1646 34 26
1647 12 23
1647 14 12
1648 8 1
1648 19 1
1649 31 1
1650 29 2
1651 2 1
1652 38 1
1653 23 1
1653 24 17
1653 26 7
1654 20 1
1655 9 8
1655 10 13
1655 11 9
1656 24 1
1657 12 1
1658 4 1
1658 5 3
1658 9 1
1658 21 1
1658 38 6
1659 3 1
1659 18 1
1660 24 9
1660 31 9
1661 24 1
1662 38 1
1663 24 1
1664 38 1
1665 38 1
1666 3 1
1666 34 2
1667 31 10
1668 8 1
1669 23 1
1669 24 6
1670 28 2
1670 38 1
1671 28 10
1672 2 1
1672 16 1
1673 7 1
1673 8 2
1673 18 8
1673 19 14
1673 20 2
1673 38 1
1674 9 16
1674 10 21
1674 11 16
1675 18 1
1676 24 1
1676 29 16
1676 30 3
1677 24 1
1678 21 1
1678 31 1
1679 2 9
1679 3 2
1679 29 1
1679 34 10
1680 24 2
1681 5 1
1682 3 1
1682 5 1
1682 29 2
1682 31 1
1682 34 1
1683 2 1
1683 3 7
1683 22 1
1683 34 12
1684 34 1
1685 3 1
1686 20 1
1686 24 3
1687 9 4
1687 10 5
1687 11 3
1688 24 1
1689 26 2
1690 24 12
1691 29 6
1691 30 2
1692 4 2
1693 2 1
1693 19 2
1693 34 1
1694 18 1
1695 4 1
1696 14 1
1697 20 1
1697 29 11
1697 30 2
1698 28 6
1699 21 1
1700 14 1
1700 18 1
1700 19 1
1701 15 1
1702 4 7
1702 5 10
1702 38 16
1703 29 12
1703 30 1
1704 22 1
1705 19 1
1706 3 1
1706 29 3
1707 5 1
1707 21 9
1707 22 11
1708 18 1
1709 8 2
1710 3 1
1711 21 1
1711 34 1
1712 29 1
1713 4 1
1713 38 3
1714 38 1
1715 3 1
1716 31 1
1717 4 4
1717 38 11
1718 5 1
1718 31 4
1719 2 1
1719 5 4
1719 8 1
1719 14 1
1719 15 1
1719 20 1
1719 26 1
1719 29 1
1719 31 1
1719 34 4
1719 38 2
1720 1 1
1720 2 3
1720 3 9
1720 34 11
1721 18 1
1722 10 1
1722 31 1
1723 2 8
1723 3 14
1723 31 1
1723 34 13
1724 17 1
1725 17 1
1726 9 1
1727 21 1
1727 29 8
1728 29 1
1729 15 52
1729 16 28
1729 17 38
1730 15 1
1730 31 17
1731 28 2
1732 34 1
1733 31 1
1734 3 1
1734 24 7
1735 3 1
1735 4 2
1735 5 9
1735 38 9
1736 5 1
1737 34 1
1738 3 1
1739 2 2
1739 3 2
1739 21 1
1739 34 1
1740 2 1
1740 3 6
1740 22 1
1740 34 6
1741 3 1
1741 21 22
1741 22 14
1742 24 9
1743 30 1
1744 3 1
1745 11 1
1746 18 1
1746 31 1
1747 31 10
1748 2 2
1748 3 9
1748 22 1
1748 31 1
1748 34 13
1749 20 1
1749 23 1
1749 24 19
1749 34 1
1750 15 4
1750 16 2
1750 17 3
1751 7 1
1752 5 1
1752 38 1
1753 2 13
1753 3 23
1753 18 1
1753 34 17
1754 38 1
1755 2 1
1756 29 1
1756 38 1
1757 1 1
1757 2 7
1757 3 13
1757 8 1
1757 34 19
1758 17 1
1758 18 1
1758 21 1
1758 31 19
1759 4 8
1759 5 33
1759 24 5
1759 31 1
1759 38 43
1760 28 1
1761 15 14
1761 16 4
1761 17 18
1762 17 1
1763 21 1
1764 1 1
1764 2 16
1764 3 40
1764 24 1
1764 34 43
1765 2 1
1766 12 1
1767 2 1
1767 14 2
1767 18 1
1767 34 2
1767 38 1
1768 38 1
1769 21 1
1770 2 1
1770 3 1
1770 19 2
1770 24 1
1771 24 1
1771 29 1
1772 29 1
1773 34 1
1774 8 1
1775 7 2
1775 8 16
1776 3 1
1776 31 1
1777 31 3
1778 34 1
1779 2 2
1779 3 1
1779 24 1
1779 34 4
1780 3 1
1780 9 2
1780 10 7
1780 18 1
1780 19 3
1780 24 1
1780 31 1
1780 34 1
1781 14 1
1781 31 1
1782 34 1
1783 34 1
1784 3 1
1784 38 3
1785 3 1
1786 3 1
1786 10 1
1787 4 6
1787 5 12
1787 8 4
1787 29 1
1787 38 23
1788 19 1
1789 8 3
1790 2 1
1791 2 1
1792 31 1
1793 24 8
1794 2 1
1795 3 1
1796 7 2
1797 21 29
1797 22 8
1798 14 1
1799 18 5
1800 26 1
1801 21 1
1801 22 1
1801 34 1
1802 21 1
1803 22 1
1804 4 3
1804 5 3
1804 29 1
1804 38 6
1805 5 1
1805 10 1
1805 18 7
1805 19 18
1806 11 1
1807 7 1
1808 3 1
1808 34 1
1809 29 6
1810 7 7
1810 8 2
1811 7 1
1811 18 1
1812 23 1
1812 24 5
1813 5 1
1813 34 1
1814 29 1
1815 3 1
1815 7 1
1815 8 1
1815 12 20
1815 14 12
1816 4 10
1816 5 13
1816 18 1
1816 38 31
1817 2 7
1817 3 16
1817 22 1
1817 34 11
1818 29 8
1818 30 1
1819 21 2
1819 22 2
1820 5 1
1821 28 2
1822 5 1
1822 21 1
1822 22 5
1823 31 1
1824 12 9
1824 13 1
1824 14 8
1824 19 1
1825 4 3
1825 5 16
1825 16 1
1825 34 1
1825 38 17
1826 11 1
1826 24 1
1827 5 1
1827 29 1
1827 34 2
1828 31 2
1828 34 1
1829 28 8
1829 29 1
1830 5 1
1831 2 1
1832 21 6
1832 22 2
1832 34 1
1833 21 1
1834 7 2
1834 8 1
1835 29 13
1835 30 1
1835 31 16
1836 28 1
1837 3 2
1837 24 3
1838 38 1
1839 5 1
1839 29 1
1840 3 1
1841 5 1
1841 38 1
1842 29 22
1842 34 1
1842 38 1
1843 4 1
1843 8 1
1843 12 3
1843 18 1
1843 24 1
1843 34 1
1843 38 2
1844 2 6
1844 3 9
1844 34 21
1845 24 1
1846 5 1
1847 10 2
1847 11 2
1848 24 18
1849 7 12
1849 8 13
1850 28 1
1851 2 1
1851 24 1
1852 19 1
1853 29 1
1854 38 1
1855 31 2
1856 14 1
1857 24 1
1858 19 1
1859 15 1
1860 3 1
1861 15 1
1861 19 1
1862 34 1
1863 9 1
1864 15 1
1865 11 1
1866 29 21
1866 30 1
1867 9 1
1867 29 3
1868 3 1
1868 28 2
1869 15 1
1870 3 1
1870 10 2
1871 21 1
1872 5 15
1872 31 1
1872 38 24
1873 10 1
1874 29 4
1874 30 1
1875 21 1
1876 3 1
1876 12 1
1877 12 2
1877 14 6
1878 11 1
1878 34 1
1879 10 1
1880 31 1
1881 19 1
1882 18 1
1882 38 2
1883 10 1
1883 28 8
1883 38 1
1884 15 6
1884 16 9
1884 17 3
1884 18 1
1885 31 6
1885 34 1
1886 3 1
1887 21 1
1887 31 6
1888 15 1
1889 22 1
1890 31 1
1891 3 1
1892 3 1
1893 19 1
1894 24 1
1895 5 1
1895 17 1
1896 12 1
1897 4 2
1898 34 1
1899 24 1
1899 26 17
1900 24 1
1901 38 1
1902 2 1
1902 3 2
1902 8 1
1902 10 1
1902 18 2
1902 22 1
1902 24 2
1902 31 1
1902 34 1
1902 38 1
1903 3 1
1904 24 1
1905 3 2
1905 5 2
1905 7 1
1905 10 1
1905 16 1
1905 20 1
1905 21 1
1905 22 2
1905 24 1
1905 26 1
1905 29 1
1905 31 1
1905 34 3
1905 38 1
1906 5 1
1907 22 1
1908 28 1
1908 38 2
1909 5 6
1909 38 6
1910 29 13
1911 29 1
1912 7 1
1913 2 2
1913 3 5
1913 34 6
1914 28 3
1915 19 1
1916 34 1
1917 22 1
1918 31 1
1919 18 13
1919 19 3
1919 20 1
1920 19 1
1920 21 1
1921 21 4
1921 22 3
1921 34 1
1922 3 1
1922 29 28
1922 30 1
1922 34 1
1922 38 1
1923 21 2
1923 22 3
1924 3 1
1925 9 1
1926 21 1
1927 4 1
1928 21 1
1928 38 1
1929 3 1
1929 19 1
1930 12 1
1931 4 1
1931 5 10
1931 34 1
1931 38 15
1932 5 1
1933 22 1
1934 19 1
1934 31 6
1935 31 3
1936 24 18
1937 5 1
1937 18 1
1938 29 1
1939 12 1
1939 14 1
1939 34 1
1940 20 1
1941 18 1
1942 12 1
1942 18 1
1942 19 2
1942 20 3
1943 34 1
1944 18 1
1944 19 1
1945 24 8
1945 26 4
1946 18 1
1947 29 7
1948 29 17
1948 30 1
1949 5 2
1949 8 1
1950 12 2
1950 24 28
1950 31 1
1950 34 1
1951 5 2
1952 1 2
1952 2 26
1952 3 48
1952 24 1
1952 34 107
1953 3 1
1954 2 1
1954 3 1
1954 22 1
1954 34 1
1955 21 1
1956 3 1
1957 29 14
1957 30 2
1958 18 1
1959 24 1
1959 38 1
1960 18 22
1960 19 23
1960 20 11
1960 31 1
1961 18 1
1962 38 1
1963 5 1
1964 24 1
1965 1 1
1965 2 1
1965 3 2
1965 5 2
1965 12 1
1965 15 3
1965 18 1
1965 19 1
1965 21 29
1965 22 23
1965 24 2
1966 5 1
1967 34 1
1968 18 3
1968 19 15
1968 20 5
1968 34 1
1969 18 7
1969 19 7
1969 20 4
1970 38 1
1971 18 2
1972 29 14
1972 30 2
1973 19 1
1974 22 1
1975 4 1
1976 5 1
1977 2 1
1978 12 3
1978 14 2
1978 21 2
1978 22 1
1979 7 1
1980 19 1
1980 38 2
1981 24 1
1982 18 1
1983 5 1
1983 8 1
1983 12 1
1983 34 1
1984 3 1
1984 19 1
1984 24 1
1984 38 1
1985 4 1
1985 5 1
1985 12 1
1985 38 1
1986 2 1
1987 19 1
1988 24 13
1989 1 1
1989 2 27
1989 3 49
1989 34 45
1990 2 1
1991 18 1
1992 31 1
1993 24 20
1994 7 7
1994 8 16
1994 24 1
1995 38 1
1996 5 1
1997 26 2
1997 29 1
1997 31 1
1998 31 2
1999 2 7
1999 3 13
1999 34 17
2000 9 1
2000 10 2
2000 11 1
2000 18 1
2001 24 2
2002 5 1
2002 30 1
2002 38 1
2003 7 1
2004 14 1
2005 3 1
2006 12 1
2006 29 1
2007 38 1
2008 19 1
2009 34 1
2010 8 1
2010 38 1
2011 4 9
2011 5 27
2011 38 36
2012 34 1
2013 18 1
2013 19 1
2014 9 4
2014 10 1
2015 24 4
2016 19 1
2016 28 4
2017 8 1
2017 24 11
2018 2 1
2018 18 1
2018 29 1
2019 31 1
2020 34 4
2021 34 1
2022 31 1
2023 5 1
2023 10 1
2023 11 1
2023 34 1
2023 38 2
2024 18 1
2024 34 1
2025 12 1
2026 24 1
2027 18 1
2028 3 2
2028 23 2
2028 24 22
2029 8 1
2029 9 1
2029 10 2
2029 11 2
2029 34 1
2030 20 1
2030 29 1
2031 18 1
2032 10 1
2032 18 6
2032 19 10
2032 20 7
2033 2 1
2034 29 9
2034 30 2
2035 3 1
2036 31 1
2037 34 1
2038 2 2
2038 3 10
2038 34 5
2039 38 1
2040 29 1
2040 31 10
2041 15 1
2041 24 16
2042 12 1
2043 24 1
2044 5 2
2044 21 1
2044 23 1
2044 24 8
2045 5 1
2046 5 1
2046 12 6
2046 14 1
2047 3 1
2048 18 1
2048 29 1
2049 3 1
2049 34 1
2050 34 1
2051 2 1
2051 3 1
2051 34 1
2052 31 4
2053 34 1
2054 3 1
2054 12 15
2054 13 1
2054 14 20
2055 29 1
2056 38 1
2057 21 1
2057 38 1
2058 2 1
2058 20 1
2059 22 1
2060 5 1
2060 9 1
2060 10 8
2060 11 1
2061 3 2
2061 5 3
2061 12 1
2061 19 1
2061 20 1
2061 31 1
2061 34 1
2061 38 2
2062 8 1
2063 38 1
2064 7 1
2064 18 22
2064 19 16
2064 20 5
2065 4 5
2065 5 18
2065 38 19
2066 15 1
2067 2 3
2067 11 1
2068 23 1
2068 24 8
2068 34 1
2069 20 1
2070 2 1
2070 29 6
2070 30 1
2071 20 1
2072 4 1
2072 5 4
2072 38 9
2073 9 1
2074 3 1
2074 18 1
2075 19 1
2076 10 1
2077 12 1
2078 15 12
2078 16 5
2078 17 15
2079 5 1
2080 4 1
2081 18 1
2081 19 1
2082 9 6
2082 10 6
2082 11 7
2083 2 1
2084 18 11
2084 19 14
2084 20 4
2085 34 1
2086 2 1
2086 3 3
2086 34 1
2086 38 2
2087 2 1
2087 34 1
2088 20 1
2089 18 3
2089 19 1
2090 38 1
2091 26 5
2091 29 3
2091 34 1
2092 29 2
2093 15 13
2093 16 7
2093 17 10
2093 29 4
2094 2 1
2095 3 3
2095 9 2
2095 12 1
2095 16 1
2095 18 2
2095 21 1
2095 24 5
2095 26 1
2095 34 2
2096 21 2
2096 34 1
2096 38 1
2097 3 6
2097 34 4
2098 4 4
2098 5 7
2098 38 7
2099 38 2
2100 3 1
2100 10 1
2100 34 1
2101 5 1
2102 3 2
2102 19 1
2102 28 1
2102 34 1
2103 27 1
2104 18 1
2105 2 1
2106 12 1
2107 5 1
2108 31 10
2109 29 1
2110 5 1
2111 3 1
2111 12 1
2112 12 6
2112 14 4
2112 17 1
2112 22 1
2112 34 1
2113 18 1
2114 3 1
2114 22 1
2115 18 1
2116 9 1
2117 24 2
2118 24 4
2119 2 1
2119 5 1
2119 7 1
2120 15 1
2120 16 4
2120 17 2
2120 19 1
2120 24 1
2120 38 1
2121 24 6
2122 34 1
2123 28 5
2124 1 1
2125 18 18
2125 19 21
2125 20 5
2126 38 1
2127 4 7
2127 5 28
2127 24 1
2127 38 30
2128 38 1
2129 8 1
2129 21 6
2129 22 6
2129 38 1
2130 3 1
2130 4 18
2130 5 55
2130 19 1
2130 24 2
2130 38 55
2131 5 1
2132 38 1
2133 3 1
2133 20 1
2133 29 1
2134 2 10
2134 3 36
2134 34 34
2135 5 1
2135 34 1
2136 15 9
2136 16 5
2136 17 7
2137 21 1
2137 24 1
2137 26 3
2138 2 1
2139 34 1
2140 2 1
2141 29 11
2142 7 3
2142 8 2
2142 19 1
2143 16 1
2143 17 1
2144 5 2
2145 16 1
2145 22 1
2146 16 1
2147 34 1
2148 18 1
2148 19 1
2149 22 1
2150 3 1
2151 24 1
2152 4 2
2152 19 1
2152 21 1
2152 24 1
2152 29 1
2152 34 1
2152 38 1
2153 21 2
2153 22 3
2153 31 1
2154 4 8
2154 5 33
2154 38 48
2155 18 18
2155 19 20
2155 20 6
2156 7 1
2156 8 1
2157 11 1
2157 31 1
2158 5 1
2158 28 2
2159 21 1
2160 29 2
2161 24 7
2162 31 12
2163 3 1
2164 3 1
2165 12 1
2165 20 1
2166 22 1
2167 1 1
2167 2 8
2167 3 33
2167 34 30
2168 1 1
2168 2 4
2168 3 10
2168 34 14
2169 34 2
2170 4 2
2170 5 4
2170 38 13
2171 3 1
2172 24 1
2173 8 1
2174 3 1
2175 3 1
2175 7 1
2175 34 2
2176 31 16
2177 24 22
2177 34 1
2178 23 1
2178 24 5
2179 34 1
2180 1 1
2180 2 16
2180 3 19
2180 34 27
2181 21 2
2181 22 1
2182 11 1
2183 3 1
2184 2 1
2184 23 1
2184 24 9
2184 38 1
2185 34 1
2186 3 1
2187 24 32
2188 23 1
2188 24 9
2189 2 1
2189 4 11
2189 5 32
2189 38 36
2190 14 1
2190 18 26
2190 19 26
2190 20 17
2191 31 4
2192 9 12
2192 10 13
2192 11 2
2193 8 1
2193 19 1
2193 21 1
2193 24 1
2194 31 1
2194 34 1
2195 34 1
2196 2 2
2196 3 1
2196 5 2
2196 7 1
2196 14 1
2196 16 1
2196 17 2
2196 18 2
2196 24 2
2196 25 1
2196 26 1
2196 29 1
2196 38 3
2197 10 1
2198 10 1
2199 20 1
2200 5 2
2200 18 1
2200 21 1
2200 34 1
2200 38 1
2201 14 2
2201 18 1
2202 18 11
2202 19 17
2202 20 6
2203 3 1
2204 7 1
2204 8 6
2204 38 1
2205 18 1
2205 24 3
2206 15 1
2207 26 1
2208 5 1
2209 26 3
2210 24 1
2211 2 3
2211 3 6
2211 4 1
2211 5 2
2211 12 1
2211 34 8
2212 31 4
2213 14 1
2214 38 1
2215 3 1
2216 5 1
2216 24 11
2216 34 1
2217 29 1
2217 31 1
2218 21 1
2219 21 25
2219 22 7
2220 5 1
2220 29 2
2221 2 1
2221 16 1
2221 17 2
2222 2 1
2223 24 1
2224 12 1
2224 24 3
2225 21 1
2226 24 1
2226 34 1
2227 19 1
2228 18 1
2228 34 1
2229 15 3
2229 16 2
2229 17 3
2229 34 1
2230 1 1
2230 2 19
2230 3 42
2230 34 67
2231 24 1
2232 3 1
2232 18 3
2232 19 5
2232 20 5
2233 7 2
2233 8 4
2233 17 1
2233 25 1
2234 9 6
2234 10 18
2234 11 6
2234 26 4
2234 34 1
2235 2 18
2235 3 18
2235 24 8
2235 34 28
2236 20 1
2237 18 4
2237 19 2
2237 20 1
2238 7 6
2238 8 15
2238 34 1
2239 16 1
2240 29 7
2240 30 4
2241 4 1
2241 5 8
2241 38 8
2242 19 1
2242 31 4
2243 12 1
2244 29 13
2244 30 1
2245 24 1
2246 1 1
2246 2 10
2246 3 27
2246 29 1
2246 34 45
2247 2 1
2247 4 1
2247 5 2
2247 12 1
2247 14 1
2247 18 1
2247 20 1
2247 22 1
2247 24 1
2247 26 1
2247 30 1
2248 3 1
2248 24 13
2249 11 1
2250 29 1
2250 34 1
2251 15 4
2251 16 2
2251 17 6
2252 2 1
2253 34 1
2254 28 1
2255 26 2
2256 38 1
2257 12 1
2257 18 1
2257 19 1
2257 20 1
2257 29 1
2257 31 1
2258 5 1
2258 24 1
2258 29 1
2259 5 1
2260 17 1
2261 12 1
2262 14 1
2262 24 1
2263 18 1
2264 2 1
2264 9 1
2264 28 1
2265 26 1
2266 29 1
2267 2 12
2267 3 25
2267 34 43
2268 5 1
2269 21 1
2269 28 3
2270 3 1
2270 12 1
2270 19 1
2270 21 1
2270 22 1
2270 29 3
2270 34 2
2270 38 3
2271 19 1
2271 34 1
2272 18 1
2273 21 40
2273 22 19
2273 24 1
2273 34 1
2274 3 1
2275 15 1
2276 9 1
2276 28 1
2277 4 1
2278 19 1
2279 5 1
2279 8 1
2279 20 1
2279 21 1
2279 24 1
2279 38 1
2280 3 2
2280 26 6
2281 14 1
2282 5 1
2282 9 1
2282 24 1
2283 2 1
2283 3 2
2283 5 1
2283 11 1
2283 19 2
2283 34 1
2283 38 1
2284 28 1
2285 34 1
2286 5 1
2287 17 1
2288 12 1
2288 24 17
2289 3 1
2289 4 12
2289 5 31
2289 29 5
2289 30 1
2289 38 48
2290 3 1
2291 31 1
2292 21 1
2293 38 1
2294 38 1
2295 29 8
2296 29 1
2297 19 1
2298 3 1
2299 12 1
2299 15 6
2299 16 1
2299 17 2
2299 18 21
2299 19 26
2299 20 4
2300 12 1
2301 7 2
2301 8 1
2301 31 1
2302 24 15
2303 2 8
2303 3 16
2303 34 20
2304 5 1
2305 15 9
2305 16 7
2305 17 6
2306 4 1
2306 12 1
2306 26 1
2307 15 3
2307 17 4
2308 38 1
2309 10 1
2310 24 23
2311 3 2
2311 12 1
2311 14 1
2311 17 1
2311 18 1
2311 19 1
2311 26 1
2311 38 3
2312 2 7
2312 3 11
2312 34 9
2313 21 21
2313 22 18
2314 24 7
2314 28 1
2314 29 2
2314 30 1
2315 19 1
2316 38 1
2317 3 1
2317 15 1
2317 30 1
2318 7 13
2318 8 18
2318 18 1
2318 34 2
2318 38 1
2319 12 1
2319 29 1
2320 18 1
2321 3 1
2321 9 1
2321 14 1
2321 15 1
2321 17 1
2321 19 2
2321 34 2
2321 38 1
2322 7 4
2322 8 6
2322 18 2
2322 21 2
2322 22 1
2323 3 1
2323 5 1
2323 26 1
2324 22 1
2325 7 1
2325 28 2
2326 20 1
2327 38 1
2328 15 8
2328 17 5
2329 28 1
2330 29 1
2330 30 1
2331 5 1
2332 15 17
2332 16 4
2332 17 16
2333 4 2
2333 5 3
2333 38 6
2334 12 1
2334 14 5
2335 3 1
2336 24 29
2337 5 1
2338 3 1
2338 5 1
2338 28 6
2338 38 2
2339 5 2
2339 38 3
2340 2 1
2341 9 7
2341 10 8
2341 11 1
2342 3 1
2343 29 1
2344 31 1
2345 24 3
2346 34 1
2347 25 1
2347 26 24
2348 12 38
2348 13 2
2348 14 26
2348 34 1
2349 38 1
2350 20 1
2351 7 1
2352 19 1
2353 4 2
2353 5 8
2353 38 11
2354 3 2
2354 5 1
2354 8 1
2354 10 1
2354 18 2
2354 19 3
2354 21 2
2354 24 2
2354 34 1
2354 38 4
2355 3 1
2355 24 34
2355 25 1
2355 26 3
2355 29 1
2356 3 1
2356 24 1
2357 8 1
2357 24 1
2358 20 1
2358 29 1
2359 24 1
2360 24 1
2360 29 1
2361 29 1
2362 34 1
2363 3 1
2363 28 2
2364 30 1
2365 34 1
2366 20 1
2367 18 1
2368 2 1
2369 18 2
2370 19 1
2371 3 3
2371 34 5
2372 19 1
2373 34 1
2374 5 1
2375 29 1
2376 1 1
2376 2 5
2376 3 6
2376 34 6
2377 4 2
2377 5 3
2377 38 3
2378 12 1
2378 24 5
2379 5 1
2379 29 1
2380 28 1
2381 18 1
2382 2 1
2383 22 1
2383 24 1
2384 1 2
2384 2 1
2384 3 7
2384 9 1
2384 34 7
2385 12 2
2386 29 1
2387 5 2
2387 8 1
2387 15 1
2387 18 1
2387 21 1
2387 29 1
2387 31 1
2387 38 2
2388 31 2
2389 29 17
2389 30 3
2390 2 1
2390 3 1
2390 7 1
2390 9 1
2390 14 1
2390 18 2
2390 29 2
2390 31 2
2390 34 2
2391 29 1
2392 18 2
2392 19 2
2392 20 4
2392 38 1
2393 17 1
2394 2 5
2394 3 8
2394 12 1
2394 34 20
2395 31 1
2396 12 1
2397 24 1
2398 24 37
2399 29 1
2400 29 1
2401 10 1
2401 29 18
2401 30 2
2401 34 1
2401 38 1
2402 1 1
2402 2 1
2402 29 2
2402 31 13
2402 34 5
2403 29 1
2404 19 1
2405 24 1
2406 5 1
2406 12 1
2407 24 1
2408 2 12
2408 3 40
2408 34 34
2409 34 1
2410 34 1
2411 5 1
2412 8 1
2412 34 1
2412 38 1
2413 21 3
2413 22 1
2414 11 1
2415 29 2
2416 24 1
2417 3 1
2417 15 1
2417 19 1
2417 24 1
2417 34 4
2417 38 1
2418 14 1
2418 31 1
2419 5 1
2419 18 26
2419 19 16
2419 20 8
2420 2 7
2420 3 18
2420 34 26
2421 10 1
2421 29 10
2421 30 1
2422 5 10
2422 38 9
2423 14 1
2424 5 6
2424 38 3
2425 22 1
2426 12 2
2426 14 1
2426 31 1
2427 18 1
2428 12 1
2429 18 3
2429 19 8
2430 38 1
2431 29 1
2432 3 1
2432 29 1
2432 34 1
2433 5 1
2434 18 5
2434 19 5
2434 20 3
2434 29 1
2435 24 1
2436 24 1
2437 21 1
2438 4 9
2438 5 20
2438 38 13
2439 29 1
2440 3 1
2440 18 64
2440 19 63
2440 20 30
2440 38 1
2441 19 1
2442 1 1
2442 2 14
2442 3 20
2442 34 23
2443 4 1
2443 5 2
2443 34 1
2443 38 7
2444 31 1
2445 3 1
2446 12 12
2446 14 8
2446 19 1
2447 28 1
2448 28 1
2449 31 1
2450 5 1
2450 34 1
2451 24 1
2452 18 1
2452 21 12
2452 22 8
2452 24 1
2453 38 1
2454 28 4
2455 38 1
2456 5 1
2456 8 1
2456 18 21
2456 19 30
2456 20 6
2456 21 6
2456 22 3
2457 2 1
2458 2 1
2459 34 1
2460 29 1
2461 29 1
2462 24 1
2463 24 1
2464 24 19
2465 24 15
2465 34 1
2466 8 1
2466 9 1
2466 18 3
2466 19 1
2466 29 1
2466 31 1
2466 34 1
2467 2 1
2468 21 1
2469 2 1
2470 5 1
2471 34 2
2472 10 2
2472 29 1
2473 15 1
2474 24 3
2474 38 1
2475 3 1
2475 26 1
2476 15 1
2477 24 1
2477 31 7
2478 3 1
2478 5 1
2478 29 4
2479 34 1
2480 21 8
2480 22 11
2481 3 1
2482 9 1
2482 15 2
2482 17 1
2483 34 1
2484 2 1
2484 18 1
2485 2 1
2485 8 1
2485 24 1
2485 34 1
2485 38 2
2486 2 1
2486 18 1
2486 29 14
2487 2 1
2487 3 3
2487 34 4
2488 20 1
2489 27 1
2489 28 2
2490 22 1
2491 2 3
2491 3 7
2492 12 20
2492 13 3
2492 14 10
2492 38 1
2493 5 1
2494 34 1
2495 24 1
2496 29 9
2497 3 1
2498 5 1
2499 4 1
2499 19 1
2500 10 1
2500 18 12
2500 19 28
2500 20 4
2500 34 2
2501 18 1
2502 3 1
2503 2 4
2503 3 1
2503 5 1
2503 34 9
2504 4 7
2504 5 18
2504 38 31
2505 4 1
2506 15 7
2506 16 4
2506 17 6
2506 19 1
2506 20 1
2506 29 1
2507 3 1
2507 10 1
2507 17 1
2507 19 4
2507 28 1
2507 29 1
2507 30 1
2507 31 1
2507 34 3
2507 38 2
2508 18 1
2509 3 1
2510 16 1
2511 22 1
2511 24 4
2512 24 4
2513 4 1
2514 11 1
2514 18 1
2514 31 5
2514 34 1
2515 30 1
2516 34 1
2517 10 3
2518 3 1
2518 12 1
2519 29 1
2520 23 1
2520 24 7
2520 34 1
2521 38 1
2522 17 1
2523 26 1
2524 2 1
2524 8 1
2524 11 2
2524 14 1
2524 18 1
2524 20 1
2524 24 1
2524 34 4
2524 38 2
2525 38 1
2526 2 1
2526 29 11
2526 30 1
2527 38 1
2528 3 1
2529 12 1
2530 19 1
2531 29 1
2532 38 1
2533 24 1
2534 7 1
2534 8 8
2534 22 1
2535 5 2
2535 8 3
2535 10 1
2535 11 1
2535 18 3
2535 20 1
2535 29 2
2535 31 2
2535 38 1
2536 5 1
2536 21 1
2537 21 1
2537 31 15
2538 2 1
2539 2 16
2539 3 18
2539 34 35
2540 4 1
2540 5 1
2540 22 1
2540 38 1
2541 8 1
2542 24 11
2543 22 1
2544 9 1
2544 34 1
2545 15 1
2546 18 2
2547 21 6
2547 22 2
2548 5 1
2549 18 1
2549 29 1
2550 3 1
2550 11 1
2551 29 1
2552 8 1
2552 10 1
2552 19 1
2552 21 1
2552 24 1
2552 38 2
2553 5 2
2553 38 4
2554 38 1
2555 5 1
2555 14 1
2556 38 1
2557 3 1
2558 18 7
2558 19 16
2558 20 8
2559 5 1
2559 26 2
2560 3 1
2560 4 1
2561 22 1
2562 23 2
2562 24 6
2563 24 1
2563 34 1
2564 21 12
2564 22 1
2565 14 1
2565 24 1
2565 25 1
2565 26 8
2565 34 1
2566 18 12
2566 19 10
2566 20 1
2566 24 1
2567 5 1
2568 18 1
2569 24 1
2570 24 18
2571 7 10
2571 8 9
2572 5 1
2572 19 1
2573 4 1
2574 2 1
2574 5 1
2574 12 1
2574 14 1
2575 31 1
2575 34 1
2576 9 11
2576 10 31
2576 11 12
2577 3 1
2578 34 1
2579 1 1
2580 26 3
2581 3 1
2581 29 1
2582 29 12
2582 30 2
2583 4 7
2583 5 29
2583 38 41
2584 19 1
2585 3 1
2585 28 5
2585 34 1
2586 18 8
2586 19 9
2586 20 5
2587 15 4
2587 16 2
2587 17 2
2588 18 1
2589 5 1
2589 16 1
2590 1 1
2590 2 3
2590 3 6
2590 15 1
2590 17 1
2590 34 15
2591 2 2
2591 5 1
2591 18 1
2592 30 1
2593 18 3
2593 19 13
2593 20 3
2594 15 1
2595 7 1
2595 8 8
2595 19 1
2596 24 9
2597 24 1
2598 2 1
2598 29 1
2599 12 1
2599 18 1
2599 34 1
2600 4 6
2600 5 26
2600 38 32
2601 34 1
2602 3 1
2603 3 1
2604 2 3
2604 3 8
2604 34 8
2605 3 1
2605 5 1
2605 7 3
2605 8 4
2605 19 1
2605 20 1
2605 22 2
2605 29 1
2605 34 1
2606 29 10
2607 12 1
2608 11 1
2609 18 29
2609 19 29
2609 20 6
2609 34 1
2610 12 1
2611 24 11
2612 28 3
2613 2 2
2613 3 3
2613 31 8
2613 34 6
2614 3 1
2615 4 22
2615 5 53
2615 11 1
2615 29 1
2615 38 59
2616 5 1
2617 29 26
2617 30 3
2618 19 1
2619 2 11
2619 3 28
2619 5 1
2619 29 9
2619 34 31
2620 3 1
2621 3 1
2621 18 10
2621 19 8
2621 20 2
2622 14 1
2623 34 1
2624 2 1
2624 9 8
2624 10 17
2624 11 7
2625 2 1
2626 7 8
2626 8 7
2626 17 1
2627 24 1
2629 2 1
2629 5 1
2629 7 1
2629 10 1
2629 12 1
2629 21 2
2629 22 1
2629 30 1
2629 31 1
2629 34 2
2629 38 1
2630 10 1
2631 4 1
2631 5 6
2631 38 8
2632 8 1
2632 29 3
2633 16 1
2634 5 1
2634 19 1
2635 29 1
2636 3 1
2636 5 2
2636 9 1
2636 12 1
2636 14 1
2636 15 1
2636 17 3
2636 29 2
2636 38 2
2637 24 10
2638 18 2
2639 28 5
2640 2 1
2641 28 1
2642 3 1
2642 4 2
2642 5 24
2642 7 3
2642 8 2
2642 38 21
2643 3 1
2643 29 1
2645 24 1
2646 2 1
2647 2 25
2647 3 46
2647 24 1
2647 34 66
2647 38 1
2648 29 1
2649 5 1
2649 18 1
2649 29 15
2649 30 2
2650 5 1
2650 28 5
2650 31 1
2650 38 1
2651 34 1
2652 24 5
2652 34 4
2652 38 1
2653 34 1
2654 4 6
2654 5 16
2654 7 1
2654 38 17
2655 19 1
2656 2 1
2657 5 2
2658 3 1
2658 19 1
2659 5 1
2659 21 1
2659 29 1
2659 38 1
2660 28 1
2661 24 2
2662 34 1
2663 2 2
2663 3 1
2663 4 1
2663 5 2
2663 7 1
2663 8 1
2663 14 1
2663 18 1
2663 19 1
2663 20 1
2663 21 1
2663 22 1
2663 24 2
2663 31 1
2663 34 2
2663 38 2
2664 12 1
2665 15 1
2665 24 1
2666 5 1
2666 26 1
2667 29 16
2667 34 1
2668 19 1
2668 24 32
2668 34 1
2669 4 11
2669 5 23
2669 38 31
2670 2 1
2671 4 1
2671 19 1
2671 31 2
2672 34 1
2673 21 1
2674 38 1
2675 12 2
2676 4 5
2676 5 34
2676 38 25
2677 5 2
2677 28 2
2677 38 2
2678 24 3
2679 3 1
2679 7 16
2679 8 33
2680 38 1
2681 12 4
2681 14 1
2681 34 1
2682 3 1
2683 3 1
2684 3 1
2684 5 1
2684 17 1
2684 29 2
2684 34 2
2684 38 3
2685 9 2
2685 10 7
2685 11 1
2686 7 14
2686 8 24
2686 14 1
2687 29 1
2688 8 1
2688 18 1
2688 24 25
2689 8 1
2690 19 1
2691 12 1
2692 21 1
2693 9 7
2693 10 6
2693 11 10
2694 1 1
2694 2 17
2694 3 24
2694 34 50
2695 22 1
2696 2 1
2696 3 2
2696 19 2
2696 28 1
2697 21 1
2698 18 2
2698 19 2
2698 21 1
2699 1 1
2699 2 10
2699 3 17
2699 34 23
2700 9 10
2700 10 12
2700 11 15
2700 22 1
2701 4 1
2701 15 1
2701 28 1
2702 12 34
2702 13 2
2702 14 29
2702 34 1
2703 3 1
2704 2 1
2704 28 4
2705 3 2
2705 28 1
2705 34 2
2705 38 1
2706 14 1
2707 5 1
2707 10 1
2707 15 5
2707 16 6
2707 17 5
2708 16 1
2709 24 1
2710 8 1
2711 15 1
2711 16 1
2711 17 1
2711 38 1
2712 7 3
2712 8 4
2712 22 1
2713 14 1
2714 24 2
2715 14 1
2716 5 1
2716 9 1
2716 19 1
2716 24 1
2716 34 2
2716 38 1
2717 24 7
2718 4 1
2719 5 1
2720 38 1
2721 38 1
2722 28 6
2722 29 1
2723 3 1
2724 24 1
2725 24 1
2726 34 1
2727 18 6
2727 19 15
2727 20 5
2728 18 1
2728 29 15
2728 30 3
2729 18 1
2730 3 1
2731 2 1
2731 3 1
2731 7 1
2731 17 1
2731 18 1
2731 19 3
2731 20 1
2731 29 1
2731 31 1
2732 29 1
2733 3 1
2734 17 1
2735 34 1
2736 3 1
2736 8 1
2736 14 1
2736 17 1
2736 34 1
2737 5 1
2738 3 1
2739 34 1
2740 31 1
2741 34 2
2742 18 1
2742 38 1
2743 12 3
2743 14 2
2744 3 1
2744 21 1
2744 29 4
2745 3 1
2746 3 1
2746 31 8
2747 34 1
2748 29 25
2748 30 2
2749 15 1
2749 31 3
2750 11 1
2751 28 4
2752 3 1
2752 4 4
2752 5 49
2752 38 40
2753 17 1
2754 38 1
2755 38 1
2756 15 1
2757 7 1
2758 19 1
2759 15 1
2759 16 1
2759 17 1
2760 8 1
2761 21 13
2761 22 21
2762 3 1
2762 15 1
2763 19 1
2763 29 1
2764 8 1
2765 3 1
2766 9 12
2766 10 22
2766 11 11
2767 5 1
2768 19 1
2769 21 31
2769 22 16
2770 21 34
2770 22 17
2770 38 1
2771 9 20
2771 20 1
2772 5 1
2772 10 1
2772 24 1
2773 16 1
2773 29 1
2774 3 2
2774 19 1
2775 3 5
2775 12 1
2775 18 1
2775 19 1
2775 22 1
2775 26 1
2775 28 1
2775 31 1
2775 34 1
2776 14 1
2777 4 1
2778 8 1
2778 24 8
2778 34 1
2779 2 1
2779 3 2
2779 4 1
2779 8 2
2779 9 1
2779 10 3
2779 17 2
2779 18 1
2779 26 1
2779 29 4
2779 31 2
2779 34 1
2779 38 1
2780 3 1
2781 23 1
2781 24 16
2782 9 30
2782 11 25
2783 14 1
2784 17 1
2785 11 1
2786 34 1
2787 10 1
2788 38 1
2789 19 1
2790 34 1
2791 7 15
2791 8 15
2791 29 1
2792 17 1
2793 5 1
2794 24 2
2795 29 3
2796 24 1
2797 18 2
2797 19 4
2797 20 1
2798 38 1
2799 5 1
2800 34 1
2801 3 1
2802 4 1
2802 5 7
2802 15 1
2802 19 1
2802 21 1
2802 22 1
2802 38 6
2803 4 1
2803 5 5
2803 38 4
2804 4 1
2804 9 1
2804 34 1
2804 38 1
2805 1 1
2805 2 12
2805 3 19
2805 24 18
2805 34 16
2806 4 9
2806 5 36
2806 38 34
2807 21 1
2808 34 1
2809 3 1
2810 31 1
2811 34 1
2812 20 1
2812 38 1
2813 22 1
2814 8 1
2815 2 1
2815 5 1
2815 16 1
2816 3 1
2817 7 7
2817 8 8
2817 38 1
2818 24 1
2818 38 1
2819 4 1
2819 5 5
2819 38 5
2820 18 17
2820 19 6
2820 20 4
2820 21 1
2820 38 1
2821 12 6
2821 14 7
2822 18 1
2823 23 1
2824 1 1
2824 2 20
2824 3 79
2824 29 1
2824 34 71
2825 15 15
2825 16 13
2825 17 21
2826 14 1
2827 2 1
2827 12 1
2828 2 1
2828 4 1
2828 5 1
2828 7 1
2828 8 1
2828 9 1
2828 18 1
2828 21 1
2828 29 2
2828 30 1
2828 34 1
2828 38 1
2829 20 1
2829 24 1
2829 29 1
2830 19 1
2830 29 1
2831 3 1
2832 3 1
2832 15 1
2833 29 2
2834 21 1
2835 24 1
2836 8 1
2836 38 1
2837 38 1
2838 4 6
2838 5 11
2838 38 14
2839 9 1
2840 2 2
2840 3 2
2840 4 1
2840 5 1
2840 8 1
2840 14 1
2840 18 1
2840 20 1
2840 24 1
2840 28 1
2840 31 1
2840 34 1
2840 38 3
2841 38 1
2842 2 4
2842 3 10
2842 34 20
2843 3 1
2844 26 5
2845 9 1
2846 5 1
2846 11 1
2846 15 2
2846 28 1
2846 29 1
2846 34 1
2847 14 1
2848 24 1
2849 21 1
2850 18 1
2851 29 18
2851 30 1
2852 29 1
2853 21 27
2853 22 9
2854 5 1
2855 19 1
2855 34 1
2856 19 1
2857 24 2
2857 29 2
2858 18 3
2858 19 4
2859 29 1
2860 21 16
2860 22 12
2861 11 1
2862 3 1
2862 10 1
2862 38 1
2863 34 1
2864 19 1
2865 2 21
2865 3 14
2865 22 1
2865 26 1
2865 31 1
2865 34 29
2866 16 1
2866 38 1
2867 29 3
2867 30 1
2868 2 1
2868 7 2
2868 8 6
2868 34 2
2869 21 1
2870 18 18
2870 19 2
2870 20 1
2870 34 1
2871 4 10
2871 5 42
2871 38 39
2872 5 2
2872 38 1
2873 34 1
2874 38 1
2875 2 16
2875 3 32
2875 24 8
2875 34 45
2876 21 1
2876 31 1
2877 38 1
2878 1 2
2878 2 7
2878 3 18
2878 28 5
2878 34 14
2879 29 1
2880 7 5
2880 8 12
2881 2 1
2881 14 1
2881 28 2
2881 34 1
2882 15 1
2883 18 1
2884 14 1
2884 24 2
2884 38 1
2885 3 1
2885 5 2
2885 8 1
2885 21 1
2886 5 1
2886 24 1
2886 28 4
2887 18 10
2887 19 11
2888 2 1
2888 3 2
2888 5 2
2888 10 1
2888 12 22
2888 13 2
2888 14 9
2888 18 2
2888 22 1
2888 24 1
2888 29 1
2888 34 1
2888 38 1
2889 24 9
2890 18 1
2890 24 12
2891 9 1
2891 10 1
2891 29 7
2891 30 1
2891 31 6
2891 33 1
2892 11 1
2893 3 1
2894 3 1
2895 2 3
2895 3 2
2895 34 4
2896 17 1
2897 28 1
2898 2 5
2898 3 8
2898 34 12
2899 4 5
2899 5 22
2899 15 11
2899 16 3
2899 17 5
2899 18 46
2899 19 62
2899 20 10
2899 22 1
2899 38 12
2900 38 1
2901 14 1
2902 7 1
2903 1 1
2903 2 1
2903 3 3
2904 17 1
2905 9 6
2905 10 20
2905 11 8
2906 9 3
2906 10 2
2906 11 2
2906 17 1
2907 3 1
2908 28 6
2909 3 1
2909 5 1
2909 18 37
2909 19 29
2909 20 17
2909 31 1
2909 34 1
2910 34 1
2911 18 1
2911 22 1
2912 19 1
2913 24 3
2914 2 1
2914 3 1
2915 3 1
2915 18 1
2916 19 1
2917 18 1
2918 4 3
2918 5 20
2918 21 1
2918 38 20
2919 29 20
2919 30 1
2920 1 1
2920 2 22
2920 3 40
2920 34 48
2921 8 1
2921 26 3
2922 38 1
2923 3 1
2924 2 1
2925 31 9
2926 34 1
2927 21 1
2928 24 1
2929 5 1
2930 1 1
2930 2 12
2930 3 21
2930 24 11
2930 34 26
2931 19 1
2932 24 10
2933 3 1
2934 38 1
2935 5 12
2935 8 1
2935 38 12
2936 4 1
2936 24 1
2937 5 5
2937 18 1
2937 34 1
2937 38 1
2938 5 1
2939 2 3
2939 3 23
2939 19 1
2939 34 41
2940 34 1
2941 5 1
2942 21 5
2942 22 1
2943 38 1
2944 20 2
2944 24 6
2945 16 1
2945 17 1
2945 34 1
2946 2 2
2946 3 3
2946 28 1
2946 29 1
2946 34 3
2947 5 1
2948 34 1
2949 21 1
2950 14 1
2950 20 1
2951 2 1
2952 38 1
2953 2 1
2954 3 1
2955 28 2
2956 3 1
2956 38 1
2957 1 1
2957 2 6
2957 3 4
2957 10 1
2957 23 1
2957 24 13
2957 34 10
2958 2 1
2959 1 1
2959 2 2
2959 10 1
2959 14 1
2959 15 1
2959 18 3
2959 19 1
2959 22 2
2959 29 2
2959 31 1
2959 34 3
2959 38 2
2960 10 1
2961 3 1
2962 22 1
2963 16 1
2963 24 8
2964 9 1
2964 11 1
2965 5 2
2966 24 1
2967 18 1
2968 14 1
2969 7 1
2969 38 1
2970 14 1
2970 24 1
2971 15 6
2971 16 2
2971 17 3
2972 20 1
2973 24 8
2974 4 4
2974 5 21
2974 38 14
2975 12 1
2975 13 1
2976 21 1
2977 31 2
2978 38 1
2979 15 4
2979 16 4
2979 17 3
2980 3 1
2980 4 1
2980 5 1
2980 24 1
2981 2 1
2981 3 1
2981 31 8
2981 34 2
2982 4 1
2982 10 1
2983 23 1
2983 24 20
2984 2 1
2985 9 1
2986 7 1
2986 12 1
2987 4 1
2987 24 1
2987 29 8
2987 30 4
2987 34 1
2988 22 1
2989 3 1
2989 34 1
2990 2 1
2990 7 13
2990 8 21
2990 22 1
2991 38 1
2992 34 1
2993 8 3
2993 19 2
2993 34 2
2994 38 1
2995 38 1
2996 34 1
2997 5 1
2997 16 1
2997 19 1
2997 24 1
2997 34 2
2998 29 1
2998 33 1
2999 29 1
3000 5 1
3000 31 1
3000 38 2
3001 3 1
3001 5 1
3002 8 1
3002 18 6
3002 19 3
3002 20 1
3002 25 1
3002 26 1
3003 18 1
3004 2 1
3005 21 1
3005 24 1
3005 29 1
3006 4 2
3006 5 10
3006 38 17
3007 24 2
3007 38 1
3008 34 1
3009 21 1
3010 15 1
3011 34 1
3011 38 1
3012 2 9
3012 3 21
3012 8 1
3012 34 11
3013 34 2
3014 38 3
3015 21 1
3015 24 10
3016 21 1
3016 29 1
3017 10 1
3018 19 1
3018 31 1
3018 34 1
3019 17 1
3019 29 1
3019 34 1
3020 12 1
3021 7 4
3021 8 11
3022 12 4
3022 14 1
3023 4 1
3023 38 1
3024 31 1
3025 24 1
3026 34 1
3027 5 1
3027 12 24
3027 14 15
3028 5 1
3028 31 1
3028 34 1
3029 5 1
3029 10 1
3030 21 2
3030 22 1
3030 34 1
3031 29 1
3032 18 1
3033 4 3
3033 5 26
3033 21 14
3033 22 17
3033 38 19
3034 10 1
3034 31 2
3035 24 1
3036 5 1
3036 12 1
3037 2 1
3038 3 1
3038 19 1
3038 28 3
3039 38 2
3040 18 1
3040 19 4
3040 20 1
3041 9 1
3042 19 1
3043 21 1
3044 24 2
3044 29 10
3044 30 3
3045 5 1
3046 4 2
3046 5 1
3046 38 3
3047 25 1
3047 29 1
3047 38 1
3048 18 4
3048 19 7
3048 20 2
3049 3 1
3049 19 1
3049 24 1
3050 2 1
3051 5 1
3051 18 2
3051 19 2
3051 24 1
3051 34 2
3052 18 2
3052 19 3
3052 20 2
3053 5 1
3054 38 1
3055 2 1
3055 3 1
3055 11 1
3055 18 1
3055 19 1
3055 28 1
3055 31 1
3055 34 1
3056 28 1
3057 18 1
3058 18 3
3058 19 4
3058 20 3
3058 24 1
3059 10 3
3059 11 2
3059 38 1
3060 5 1
3060 24 1
3061 14 1
3062 26 1
3063 29 1
3064 3 1
3065 19 1
3065 24 16
3065 31 1
3066 24 2
3067 2 1
3067 3 1
3067 15 1
3067 28 1
3067 34 1
3068 18 1
3069 8 1
3069 15 2
3069 17 3
3069 18 1
3069 21 2
3069 22 3
3070 34 1
3070 38 1
3071 4 1
3071 5 12
3071 34 1
3071 38 8
3072 30 1
3073 12 7
3073 14 17
3074 34 2
3075 15 1
3076 34 1
3077 34 1
3078 29 4
3078 30 1
3079 5 1
3080 3 1
3080 9 4
3080 10 7
3080 11 5
3080 29 1
3081 18 2
3081 19 6
3081 24 1
3081 34 1
3082 28 1
3083 29 3
3084 9 2
3084 11 1
3084 31 1
3085 24 1
3086 5 1
3086 21 1
3087 34 1
3088 29 13
3088 30 2
3089 28 4
3090 5 1
3091 4 2
3091 5 11
3091 38 11
3092 22 1
3093 2 1
3093 18 6
3093 19 6
3093 24 1
3094 5 1
3094 29 14
3095 1 3
3095 2 32
3095 3 57
3095 5 1
3095 34 64
3096 29 10
3096 30 1
3097 2 1
3098 5 1
3099 5 1
3100 12 6
3100 14 2
3101 24 1
3102 29 2
3103 34 1
3104 19 1
3105 2 1
3105 7 24
3105 8 16
3105 19 1
3105 24 1
3106 11 1
3107 11 1
3108 29 10
3108 30 1
3109 5 2
3109 18 1
3109 38 4
3110 19 1
3112 3 3
3112 34 1
3113 29 1
3114 24 1
3115 38 1
3116 24 1
3117 3 1
3118 24 16
3119 10 1
3119 31 9
3120 18 10
3120 19 9
3120 20 1
3121 3 1
3121 15 1
3121 21 1
3122 5 1
3123 12 1
3124 4 1
3124 38 1
3125 29 53
3125 30 5
3125 31 1
3125 34 1
3126 5 1
3126 21 1
3126 24 9
3127 21 1
3128 15 1
3128 21 6
3128 22 10
3129 20 1
3130 34 1
3131 1 2
3131 2 16
3131 3 26
3131 34 42
3132 34 1
3133 3 1
3133 5 1
3133 7 2
3133 18 1
3133 21 1
3133 24 1
3133 34 1
3134 31 1
3134 38 1
3135 7 1
3135 8 2
3136 17 1
3137 31 1
3138 2 1
3138 21 1
3139 29 2
3140 14 1
3141 5 8
3141 38 5
3142 10 1
3143 2 30
3143 3 51
3143 34 88
3144 19 1
3145 3 1
3146 12 18
3146 14 19
3146 34 1
3147 31 5
3148 19 1
3149 26 1
3150 21 12
3150 22 13
3151 2 1
3151 19 1
3151 29 15
3151 34 1
3152 3 1
3152 28 2
3153 2 1
3154 34 1
3155 38 1
3156 4 1
3156 24 10
3156 31 1
3157 15 1
3157 24 1
3158 5 1
3159 4 1
3159 5 14
3159 29 1
3159 38 11
3160 18 39
3160 19 40
3160 20 10
3161 18 1
3161 20 2
3162 15 7
3162 16 3
3162 17 9
3162 18 5
3162 19 7
3162 20 2
3163 24 16
3164 9 1
3165 11 1
3166 2 1
3167 3 1
3168 10 1
3168 18 45
3168 19 43
3168 20 2
3169 20 1
3169 24 1
3169 29 1
3170 7 5
3170 8 16
3170 29 1
3171 34 1
3172 34 1
3173 3 1
3174 34 1
3175 29 1
3176 21 1
3177 2 1
3177 7 3
3177 8 16
3177 15 4
3177 16 5
3177 17 1
3178 5 1
3178 12 1
3178 24 6
3179 16 1
3180 8 1
3181 5 1
3181 18 31
3181 19 28
3181 20 8
3182 2 1
3182 12 1
3182 24 1
3182 38 1
3183 38 1
3184 4 1
3184 5 2
3184 8 1
3184 18 1
3184 21 1
3184 38 1
3185 26 1
3185 31 10
3185 38 1
3186 29 1
3187 19 2
3188 2 1
3188 3 1
3188 5 1
3188 31 1
3188 38 1
3189 19 1
3189 31 14
3190 12 8
3190 14 5
3191 31 1
3192 19 1
3193 4 1
3193 5 1
3194 38 1
3195 21 1
3195 29 1
3195 38 1
3196 29 1
3197 21 1
3198 2 5
3198 3 8
3198 9 1
3198 20 1
3198 34 13
3199 14 1
3200 12 1
3201 18 6
3201 19 8
3201 20 4
3202 4 3
3202 5 8
3202 38 18
3203 34 2
3204 17 1
3204 20 1
3205 12 2
3205 17 1
3206 19 1
3207 3 1
3207 26 1
3208 24 13
3208 28 1
3209 2 1
3209 19 1
3209 20 1
3209 34 1
3210 14 1
3210 29 1
3211 24 1
3212 2 1
3212 14 1
3212 29 1
3213 2 5
3213 3 4
3213 26 1
3213 34 7
3214 29 7
3214 30 3
3215 2 1
3216 3 1
3216 31 3
3217 15 1
3218 10 1
3218 24 1
3219 34 1
3220 21 1
3221 34 1
3222 34 1
3223 18 1
3224 20 1
3225 4 3
3225 5 8
3225 38 5
3226 19 1
3227 7 12
3227 8 24
3228 18 27
3228 19 30
3228 20 4
3229 29 5
3229 30 1
3230 15 1
3231 34 1
3232 22 1
3233 2 2
3233 3 3
3233 34 2
3234 8 2
3234 38 1
3235 24 2
3236 19 1
3237 19 1
3238 5 1
3239 34 1
3240 18 1
3240 19 3
3241 15 6
3241 16 3
3241 17 1
3242 18 1
3243 11 1
3243 24 1
3243 29 2
3244 26 3
3245 15 1
3246 2 1
3246 24 2
3247 24 1
3247 31 2
3248 3 1
3249 34 1
3250 10 1
3250 24 1
3250 26 1
3250 34 1
3251 31 1
3252 24 1
3253 3 1
3254 24 3
3254 28 1
3255 3 1
3255 12 11
3255 13 1
3255 14 15
3256 3 1
3257 31 1
3258 4 3
3258 5 5
3258 38 12
3259 5 1
3259 7 2
3259 8 9
3259 38 1
3260 4 8
3260 5 21
3260 38 31
3261 12 1
3262 3 1
3262 29 1
3262 34 1
3263 7 7
3263 8 4
3263 38 1
3264 3 1
3264 5 2
3264 8 1
3264 14 1
3264 15 1
3264 17 1
3264 20 1
3264 22 1
3264 28 1
3264 34 1
3264 38 2
3265 27 1
3265 28 3
3266 2 19
3266 3 31
3266 19 1
3266 34 52
3267 38 1
3268 4 4
3268 5 14
3268 34 1
3268 38 16
3269 16 1
3270 34 1
3271 12 20
3271 14 4
3272 38 1
3273 12 1
3273 22 1
3274 4 1
3274 20 1
3275 38 1
3276 34 1
3277 5 1
3277 10 3
3277 11 1
3278 2 1
3278 15 1
3278 26 2
3279 38 1
3280 3 1
3280 4 2
3280 5 6
3280 24 1
3280 38 8
3281 2 4
3281 3 23
3281 34 58
3282 29 1
3283 15 2
3283 16 1
3283 17 1
3284 19 1
3284 34 1
3284 38 1
3285 5 1
3285 9 1
3286 20 1
3287 19 1
3288 3 1
3288 20 1
3289 2 13
3289 3 34
3289 5 1
3289 19 1
3289 34 35
3290 5 1
3290 18 1
3290 19 1
3290 26 1
3291 5 1
3291 19 1
3292 3 1
3292 18 1
3292 19 6
3292 20 2
3293 15 1
3293 18 1
3293 24 16
3294 11 1
3294 19 1
3295 34 1
3296 4 1
3297 34 1
3298 24 1
3299 3 1
3299 9 1
3300 5 1
3301 2 1
3301 5 3
3301 8 1
3301 12 1
3301 14 1
3301 19 1
3301 24 1
3301 29 1
3301 34 3
3302 22 1
3303 7 1
3304 4 2
3304 5 18
3304 38 27
3305 2 1
3306 18 1
3306 19 1
3306 29 1
3306 34 1
3307 7 1
3308 2 1
3309 2 1
3309 4 1
3309 14 1
3309 19 1
3309 24 2
3309 31 1
3309 38 1
3310 22 1
3311 24 4
3311 38 1
3312 24 1
3313 24 16
3314 4 4
3314 5 25
3314 9 1
3314 38 27
3315 15 1
3315 16 1
3315 26 1
3316 21 1
3316 24 1
3317 18 7
3317 19 17
3317 20 1
3318 19 1
3319 38 1
3320 5 1
3320 19 1
3320 22 1
3320 34 2
3321 24 13
3322 3 1
3322 9 1
3322 10 2
3322 34 1
3323 3 1
3323 5 1
3323 20 1
3323 21 1
3323 22 1
3323 31 1
3323 38 1
3324 5 1
3325 5 1
3326 3 1
3326 38 1
3327 38 1
3328 9 12
3328 10 25
3328 11 16
3328 20 1
3329 10 1
3330 4 4
3330 5 28
3330 38 36
3331 19 2
3332 24 4
3333 5 1
3334 5 1
3335 2 3
3335 3 5
3335 29 1
3335 34 12
3336 4 1
3337 14 1
3337 28 1
3337 29 5
3337 30 1
3338 3 1
3338 4 9
3338 5 38
3338 12 43
3338 13 1
3338 14 29
3338 21 1
3338 38 59
3339 19 1
3340 2 1
3340 3 1
3341 7 1
3341 8 1
3341 12 4
3341 14 2
3342 21 1
3342 23 1
3342 24 15
3342 29 1
3343 24 9
3344 21 3
3344 22 1
3344 29 1
3345 12 5
3345 14 5
3345 31 1
3346 3 1
3346 5 1
3346 12 1
3346 14 2
3346 19 1
3346 20 1
3346 21 1
3346 29 1
3346 34 1
3347 18 39
3347 19 46
3347 20 16
3348 1 2
3348 2 26
3348 3 45
3348 34 49
3349 19 2
3350 7 1
3351 18 1
3351 34 1
3352 5 2
3352 7 1
3352 8 1
3352 9 1
3352 11 1
3352 18 1
3352 19 2
3352 20 1
3352 21 1
3352 22 1
3352 24 1
3352 26 1
3352 28 1
3352 34 5
3352 38 2
3353 27 1
3353 28 6
3354 3 2
3354 34 4
3355 3 1
3356 5 1
3356 15 2
3356 16 1
3357 7 1
3358 18 11
3358 19 14
3358 20 10
3359 4 1
3359 10 1
3360 1 1
3360 2 6
3360 3 8
3360 14 1
3360 26 5
3360 31 8
3360 34 11
3361 2 1
3362 34 1
3363 2 1
3363 5 1
3363 11 1
3363 19 1
3363 25 1
3363 26 1
3364 2 9
3364 3 20
3364 34 26
3365 3 1
3366 18 1
3366 38 1
3367 34 1
3368 31 2
3369 34 1
3370 4 5
3370 5 27
3370 38 24
3371 29 4
3371 30 2
3371 38 1
3372 5 1
3372 34 1
3373 29 1
3374 18 1
3375 3 1
3376 2 6
3376 3 6
3376 5 1
3376 19 1
3376 26 8
3376 31 3
3376 34 9
3377 34 1
3378 11 35
3379 3 1
3379 20 1
3379 24 1
3379 34 2
3379 38 1
3380 14 1
3381 4 1
3381 10 1
3381 21 1
3381 31 9
3381 38 1
3382 21 1
3382 22 1
3383 8 1
3383 24 1
3383 29 1
3384 3 1
3384 19 1
3384 29 1
3385 5 1
3385 28 2
3386 26 2
3387 29 1
3388 38 1
3389 29 1
3389 34 1
3389 38 2
3390 8 1
3391 5 1
3391 7 1
3391 31 5
3392 5 3
3392 12 1
3392 14 1
3392 38 1
3393 25 2
3393 26 9
3394 8 1
3395 3 1
3396 18 1
3397 12 1
3398 19 1
3399 1 1
3399 2 5
3399 3 14
3399 12 1
3399 34 8
3400 2 1
3400 3 1
3400 5 1
3400 7 1
3400 9 2
3400 24 1
3400 28 1
3400 29 1
3400 30 1
3400 31 1
3401 22 1
3402 21 3
3402 22 6
3402 34 1
3403 11 2
3404 38 1
3405 14 1
3405 15 1
3405 24 1
3405 34 1
3405 38 1
3406 21 1
3406 31 1
3406 38 1
3407 3 1
3407 5 1
3408 18 1
3409 9 1
3409 10 3
3409 11 1
3409 34 1
3410 21 28
3410 22 16
3411 34 1
3411 38 1
3412 15 2
3412 16 3
3412 17 2
3412 31 1
3413 38 1
3414 4 1
3414 5 8
3414 29 1
3414 38 5
3415 3 1
3416 2 1
3417 24 1
3417 38 1
3418 34 1
3419 9 12
3419 10 21
3419 11 14
3420 10 1
3421 18 1
3421 20 1
3421 29 1
3422 12 1
3423 18 1
3423 19 2
3423 21 2
3423 38 2
3424 18 17
3424 19 34
3424 20 18
3425 18 1
3426 2 4
3426 3 7
3426 18 1
3426 19 1
3426 34 2
3427 3 1
3428 3 1
3428 12 1
3429 3 1
3430 5 1
3431 2 1
3431 38 1
3432 31 2
3433 9 1
3434 38 1
3435 15 8
3435 16 5
3435 17 4
3435 31 1
3436 1 1
3436 2 11
3436 3 12
3436 34 28
3437 24 1
3438 31 1
3439 21 1
3440 3 1
3441 4 1
3442 29 19
3442 30 2
3443 5 12
3443 29 1
3443 38 18
3444 34 1
3445 24 1
3445 29 5
3445 30 1
3446 4 1
3446 5 5
3446 15 1
3446 19 1
3446 38 7
3447 21 1
3448 24 3
3449 8 1
3450 2 11
3450 3 15
3450 4 1
3450 34 19
3451 4 1
3451 31 1
3452 21 34
3452 22 22
3453 21 1
3454 21 1
3455 19 1
3455 24 11
3456 2 1
3456 3 1
3456 5 3
3456 10 2
3456 17 1
3456 19 1
3456 20 1
3456 21 1
3456 22 1
3456 24 3
3456 29 1
3456 34 1
3456 38 2
3457 4 1
3457 24 1
3457 29 1
3458 17 1
3459 34 1
3460 1 1
3460 2 6
3460 3 28
3460 34 28
3461 31 1
3462 34 1
3463 4 2
3463 5 13
3463 38 19
3464 2 1
3465 2 1
3465 3 2
3465 24 1
3465 26 2
3465 29 3
3465 31 1
3465 34 3
3466 16 1
3467 21 1
3468 3 1
3468 10 1
3468 34 1
3469 34 1
3470 38 1
3471 19 1
3471 38 1
3472 24 1
3473 2 1
3474 28 6
3475 2 1
3476 3 1
3476 10 1
3476 29 1
3477 24 4
3478 19 1
3479 29 18
3479 30 2
3480 29 1
3481 3 1
3481 29 2
3481 34 2
3482 5 1
3482 7 1
3482 11 1
3483 14 1
3484 34 1
3485 3 1
3485 21 27
3485 22 23
3485 34 1
3486 29 11
3487 26 1
3488 3 1
3489 23 2
3489 24 2
3490 8 1
3490 11 1
3490 19 1
3490 22 1
3490 24 1
3490 38 1
3491 26 1
3491 31 4
3492 8 1
3492 15 1
3492 22 1
3493 1 1
3493 2 12
3493 3 8
3493 24 1
3493 34 16
3494 21 1
3495 34 1
3496 19 1
3496 28 1
3496 34 2
3497 4 2
3497 5 5
3497 12 2
3497 14 4
3497 18 1
3497 20 1
3497 31 6
3497 33 1
3497 34 1
3497 38 6
3498 10 1
3498 24 2
3499 5 1
3500 23 1
3501 7 1
3502 3 1
3502 20 1
3502 21 7
3503 2 11
3503 3 21
3503 34 19
3504 17 1
3505 10 1
3506 38 1
3507 12 2
3507 16 1
3507 24 1
3507 34 1
3507 38 1
3508 34 1
3509 7 17
3509 8 24
3509 19 1
3510 20 1
3510 24 7
3511 2 1
3511 5 1
3511 12 2
3512 5 1
3513 4 6
3513 5 22
3513 38 32
3514 16 1
3515 19 1
3516 10 2
3517 15 14
3517 16 5
3517 17 4
3517 31 12
3518 3 1
3518 34 1
3519 14 1
3520 28 1
3521 24 1
3522 3 2
3522 34 1
3523 12 21
3523 14 21
3524 10 1
3525 12 5
3525 14 5
3526 14 1
3526 24 13
3526 30 1
3527 19 1
3527 28 6
3528 19 1
3529 34 1
3530 5 1
3531 3 1
3531 8 2
3531 9 1
3531 15 1
3531 18 2
3531 21 3
3531 22 1
3531 24 1
3531 31 1
3531 34 1
3531 38 3
3532 22 1
3533 7 1
3533 34 1
3534 38 1
3535 18 1
3536 18 2
3536 19 1
3537 19 1
3538 1 1
3538 2 5
3538 3 40
3538 24 1
3538 34 50
3539 18 1
3540 20 1
3541 38 1
3542 12 1
3542 21 4
3542 22 4
3543 3 1
3543 5 1
3543 29 1
3544 21 1
3545 4 2
3545 5 23
3545 38 15
3546 4 30
3546 5 94
3546 38 114
3547 34 1
3548 31 13
3549 3 1
3550 8 1
3551 24 1
3552 12 1
3553 5 1
3554 26 2
3555 5 1
3556 4 1
3556 5 14
3556 34 1
3556 38 18
3557 29 13
3557 30 1
3557 34 1
3558 17 1
3559 38 1
3560 29 4
3560 30 2
3561 24 13
3562 21 1
3563 14 1
3564 5 1
3564 20 1
3564 24 3
3565 18 1
3566 5 1
3566 15 2
3566 17 1
3566 38 3
3567 14 1
3567 18 1
3567 19 1
3568 34 1
3569 18 17
3569 19 20
3569 20 7
3570 4 7
3570 5 11
3570 38 12
3571 10 1
3572 28 4
3572 34 1
3572 38 1
3573 17 1
3573 21 4
3573 22 4
3573 24 1
3574 28 4
3575 12 23
3575 14 13
3576 5 1
3576 8 1
3576 29 2
3576 34 1
3576 38 1
3577 2 1
3578 24 19
3578 26 4
3578 29 10
3578 30 1
3579 19 1
3579 31 1
3580 2 1
3580 12 2
3580 13 1
3581 9 3
3581 10 8
3581 11 2
3582 3 2
3582 8 1
3582 9 1
3582 12 1
3582 19 1
3582 20 2
3582 24 3
3582 31 2
3582 34 1
3582 38 1
3583 5 1
3584 19 1
3585 8 1
3585 22 1
3586 12 7
3586 14 3
3587 18 37
3587 19 40
3587 20 12
3588 5 1
3589 31 1
3590 2 2
3590 3 2
3590 34 3
3591 2 1
3592 7 12
3592 8 24
3592 21 1
3592 22 1
3593 26 1
3594 2 5
3594 3 22
3594 7 1
3594 8 1
3594 16 1
3594 34 30
3595 19 1
3595 29 1
3596 28 7
3597 18 5
3597 19 4
3597 20 2
3598 18 1
3598 19 1
3599 3 1
3600 9 1
3601 9 9
3601 10 7
3601 11 11
3602 9 1
3602 10 1
3602 11 2
3603 2 1
3603 34 1
3604 2 1
3604 3 3
3604 5 2
3604 19 2
3604 34 2
3604 38 3
3605 24 1
3606 24 41
3606 38 1
3607 10 2
3607 18 39
3607 19 62
3607 20 16
3608 9 1
3609 31 6
3610 3 1
3610 5 2
3610 16 1
3610 17 1
3610 18 2
3610 22 1
3610 26 1
3610 29 1
3610 38 1
3611 38 1
3612 2 1
3613 19 1
3614 5 1
3615 20 1
3616 1 1
3616 2 1
3617 18 1
3618 38 1
3619 31 1
3620 21 17
3620 22 13
3621 2 1
3621 5 1
3622 4 7
3622 5 25
3622 38 26
3623 24 3
3623 31 1
3624 15 6
3624 16 3
3624 17 2
3625 19 1
3625 34 1
3625 38 1
3626 5 1
3627 2 1
3628 19 1
3629 22 1
3630 3 1
3630 18 1
3630 31 3
3631 17 1
3632 34 1
3633 15 1
3634 29 11
3635 29 1
3636 4 6
3636 5 17
3636 38 29
3637 29 1
3638 38 1
3639 34 1
3640 8 1
3640 18 1
3640 28 1
3641 18 1
3641 22 1
3641 31 1
3642 38 1
3643 7 1
3643 9 1
3643 34 1
3644 12 2
3644 14 1
3644 22 1
3645 11 1
3646 2 2
3646 3 1
3646 4 1
3646 5 1
3646 7 1
3646 18 1
3646 21 1
3646 34 2
3647 3 1
3648 38 1
3649 1 1
3649 5 1
3649 12 1
3649 21 1
3650 21 1
3651 21 1
3651 34 1
3652 3 1
3652 12 1
3652 29 2
3653 3 1
3654 31 1
3655 18 1
3656 19 1
3657 18 1
3658 18 9
3658 19 18
3658 20 3
3658 24 1
3658 34 1
3659 24 1
3659 28 2
3660 19 1
3661 5 1
3662 34 1
3663 8 1
3664 19 1
3665 8 1
3666 38 2
3667 3 2
3667 19 1
3667 22 2
3667 24 1
3668 3 1
3668 31 6
3669 5 1
3670 8 1
3671 2 1
3672 24 6
3673 8 1
3674 38 1
3675 4 3
3675 5 3
3675 7 7
3675 8 33
3675 22 1
3675 31 1
3675 38 6
3676 19 1
3677 18 1
3677 19 2
3677 38 1
3678 14 1
3678 21 1
3678 28 5
3679 18 1
3680 18 1
3680 19 1
3681 24 5
3681 34 1
3682 15 1
3682 28 2
3683 4 1
3683 5 10
3683 22 1
3683 38 9
3684 28 5
3685 15 1
3686 3 1
3686 24 1
3686 29 13
3687 5 1
3688 3 2
3688 12 1
3688 14 1
3688 19 1
3688 21 1
3688 24 3
3688 34 1
3688 38 2
3689 12 1
3690 18 1
3691 28 6
3692 15 1
3692 24 2
3692 29 1
3692 31 4
3693 12 16
3693 14 2
3694 18 1
3695 10 1
3696 9 8
3696 10 14
3696 11 7
3697 2 1
3697 7 1
3697 9 1
3697 12 1
3697 15 22
3697 16 21
3697 17 22
3698 5 1
3698 20 1
3699 8 1
3700 11 1
3700 19 1
3700 24 1
3701 38 1
3702 38 1
3703 19 1
3704 34 1
3705 31 1
3706 38 1
3707 34 1
3708 38 1
3709 2 1
3709 31 12
3710 28 1
3711 3 1
3712 22 1
3712 29 1
3713 34 1
3714 5 2
3714 8 1
3714 15 1
3714 18 1
3714 31 1
3715 4 3
3715 5 36
3715 38 30
3716 2 3
3716 3 2
3716 18 1
3716 34 7
3717 3 1
3717 5 1
3718 12 1
3719 20 1
3720 3 1
3720 11 1
3720 23 1
3720 24 30
3720 34 1
3721 18 1
3721 31 7
3722 29 14
3722 30 1
3723 12 1
3723 14 4
3724 14 1
3725 10 1
3726 5 1
3727 2 1
3727 5 2
3727 12 1
3727 14 1
3727 21 1
3727 24 2
3727 29 1
3727 34 4
3727 38 1
3728 21 1
3729 38 1
3730 26 2
3731 31 1
3732 9 10
3732 10 13
3732 11 9
3733 7 1
3734 15 1
3734 16 1
3735 2 1
3735 3 1
3736 9 1
3737 3 1
3737 28 4
3738 2 18
3738 3 32
3738 34 53
3739 5 1
3739 8 1
3739 18 11
3739 19 22
3739 20 3
3740 31 19
3740 34 1
3740 38 1
3741 2 1
3742 5 1
3742 14 1
3742 18 1
3742 20 1
3742 24 1
3742 34 1
3742 38 1
3743 12 6
3743 14 5
3744 9 10
3744 10 19
3744 11 12
3745 29 4
3746 29 1
3747 31 1
3747 34 1
3748 34 1
3749 24 1
3750 24 1
3751 4 1
3751 12 27
3751 13 1
3751 14 13
3751 38 1
3752 19 1
3753 28 2
3754 18 1
3754 19 1
3754 34 1
3755 2 1
3755 3 4
3755 34 7
3756 3 1
3757 31 9
3757 34 1
3758 5 1
3758 21 1
3758 29 1
3759 31 1
3760 29 1
3761 24 8
3762 34 1
3763 15 1
3763 17 1
3764 3 1
3764 31 6
3765 12 21
3765 13 1
3765 14 10
3765 38 1
3766 12 2
3766 14 1
3767 31 1
3768 9 16
3768 10 18
3768 11 21
3769 31 4
3770 12 1
3771 12 1
3772 29 8
3773 24 5
3774 38 1
3775 24 1
3776 5 1
3776 28 4
3777 29 3
3777 38 1
3778 21 1
3779 2 1
3780 38 1
3781 22 1
3782 33 1
3783 12 4
3783 13 1
3783 14 5
3784 21 9
3784 22 2
3785 15 1
3785 16 2
3785 24 1
3786 24 1
3787 4 1
3788 29 7
3789 10 1
3790 5 1
3790 18 2
3790 29 9
3791 24 1
3791 38 1
3792 34 1
3793 31 6
3793 38 1
3794 28 3
3795 2 1
3795 3 1
3795 5 2
3795 8 1
3795 19 2
3795 24 1
3795 34 1
3795 38 5
3796 31 1
3797 34 2
3798 17 1
3799 5 1
3799 38 2
3800 28 1
3800 34 1
3801 24 11
3802 29 1
3803 34 1
3804 19 1
3805 5 1
3806 29 1
3807 11 1
3808 26 3
3808 31 1
3809 21 1
3810 12 1
3811 38 1
3812 5 1
3813 24 2
3814 12 2
3814 13 1
3814 14 5
3815 7 1
3816 2 1
3816 3 6
3816 31 6
3816 34 3
3817 2 6
3817 3 20
3817 34 22
3818 2 1
3819 18 1
3819 31 1
3820 3 1
3820 38 1
3821 1 1
3821 2 1
3821 4 1
3821 17 2
3821 21 1
3821 22 2
3821 24 1
3821 29 2
3821 34 1
3821 38 1
3822 9 5
3822 10 12
3822 11 8
3823 3 1
3823 18 11
3823 19 9
3823 20 4
3824 3 1
3825 20 1
3826 3 1
3826 38 1
3827 10 2
3827 11 2
3828 5 1
3829 2 1
3830 4 1
3831 16 32
3832 17 1
3832 24 1
3833 24 1
3834 22 1
3834 31 5
3835 3 1
3835 5 2
3835 38 2
3836 3 1
3837 24 3
3838 2 1
3839 18 27
3839 19 49
3839 20 14
3840 5 1
3841 19 1
3842 10 1
3843 2 22
3843 3 32
3843 5 1
3843 24 3
3843 34 42
3844 24 1
3844 26 3
3844 31 1
3845 3 1
3845 9 27
3845 10 42
3845 11 21
3845 12 22
3845 13 2
3845 14 19
3846 14 1
3847 38 1
3848 38 2
3849 5 1
3850 8 1
3851 24 1
3852 8 1
3853 3 1
3854 19 1
3855 14 3
3855 21 6
3856 9 1
3856 21 8
3856 22 4
3857 4 3
3857 5 8
3857 38 12
3858 8 1
3859 19 1
3859 28 1
3859 34 1
3860 3 1
3860 10 1
3860 29 13
3860 30 1
3861 38 1
3862 22 1
3863 24 1
3864 16 1
3865 18 1
3866 31 12
3867 31 8
3868 18 4
3868 19 12
3868 20 1
3868 21 1
3868 29 1
3869 3 2
3869 24 1
3869 34 2
3870 2 1
3871 24 1
3872 2 1
3872 7 1
3872 12 1
3872 21 1
3872 24 1
3873 2 1
3874 4 2
3875 12 1
3875 31 4
3876 18 12
3876 19 17
3876 20 5
3876 34 1
3877 26 2
3878 2 1
3878 20 1
3879 12 1
3880 9 1
3880 21 6
3880 22 3
3880 24 1
3880 28 1
3880 34 1
3880 38 1
3881 7 1
3881 34 1
3882 4 1
3882 34 1
3883 12 8
3883 14 14
3884 3 1
3885 29 1
3886 12 11
3886 13 2
3886 14 8
3886 17 1
3887 29 3
3888 9 2
3888 10 3
3888 11 4
3888 20 1
3889 2 1
3890 8 1
3891 2 13
3891 3 30
3891 34 49
3892 16 1
3893 3 1
3894 4 1
3894 34 1
3895 34 1
3896 5 2
3896 34 1
3897 34 1
3898 7 4
3898 8 5
3899 3 1
3899 19 1
3900 2 1
3900 3 1
3900 5 1
3900 19 1
3900 22 1
3900 34 1
3901 26 2
3901 34 3
3902 1 1
3903 24 1
3904 3 1
3904 29 12
3904 30 1
3905 8 1
3905 9 1
3905 10 1
3906 12 1
3907 34 1
3908 18 1
3909 4 4
3909 5 17
3909 38 14
3910 2 1
3912 28 1
3913 18 1
3914 3 1
3914 4 1
3915 3 1
3916 24 1
3917 11 1
3918 12 14
3918 14 7
3919 26 1
3920 12 1
3920 22 1
3920 24 1
3921 12 1
3921 24 2
3922 17 1
3922 19 1
3922 24 1
3923 18 1
3923 31 1
3924 5 3
3924 38 1
3925 12 1
3926 2 1
3926 15 4
3926 16 4
3926 22 1
3927 14 1
3928 16 1
3929 5 1
3929 9 13
3929 10 20
3929 11 11
3930 19 1
3931 4 4
3931 5 20
3931 38 23
3932 24 6
3933 3 1
3934 11 1
3935 9 1
3935 10 1
3936 38 1
3937 2 3
3937 3 8
3937 29 11
3937 34 6
3938 12 1
3939 2 1
3939 3 8
3939 34 10
3940 22 1
3941 5 21
3941 38 21
3942 24 11
3942 34 1
3943 18 1
3944 24 4
3945 5 2
3945 8 1
3945 12 1
3945 18 2
3945 29 2
3945 34 2
3946 14 1
3946 20 1
3946 34 1
3946 38 1
3947 18 4
3947 19 6
3947 20 1
3947 34 1
3948 8 1
3949 4 2
3949 5 10
3949 18 1
3949 38 10
3950 24 3
3951 24 1
3951 31 5
3952 3 1
3952 28 1
3952 34 1
3952 38 1
3953 12 1
3953 14 1
3954 7 14
3954 8 26
3955 31 1
3956 1 1
3956 29 4
3956 31 1
3956 34 1
3957 18 7
3957 21 4
3958 4 1
3958 5 4
3958 38 8
3959 34 1
3960 1 3
3960 2 29
3960 3 58
3960 9 1
3960 11 1
3960 34 70
3961 5 1
3961 7 1
3962 2 2
3962 3 4
3962 15 1
3962 34 6
3963 34 1
3964 31 7
3965 4 1
3965 8 1
3965 24 13
3965 29 1
3965 31 13
3966 3 1
3967 34 1
3968 31 8
3969 3 1
3970 10 1
3971 4 8
3971 5 49
3971 38 36
3972 3 1
3972 24 10
3972 26 1
3972 29 1
3972 34 1
3973 1 1
3973 2 4
3973 3 5
3973 24 1
3973 34 4
3974 3 1
3974 30 1
3975 9 28
3975 10 46
3975 11 25
3976 31 1
3977 24 3
3978 22 1
3979 3 1
3979 18 1
3980 10 1
3981 3 2
3981 4 1
3981 5 1
3981 8 1
3981 12 1
3981 18 1
3981 19 3
3981 34 5
3981 38 1
3982 4 1
3982 5 19
3982 38 14
3983 29 1
3984 31 1
3985 34 1
3986 29 1
3987 9 1
3987 18 1
3987 19 3
3987 22 3
3987 29 1
3987 34 2
3987 38 1
3988 29 5
3988 30 1
3989 10 1
3989 29 13
3989 30 1
3990 3 2
3990 17 1
3990 21 1
3990 28 4
3991 9 1
3991 29 1
3992 29 1
3993 15 1
3994 15 15
3994 16 19
3994 17 20
3995 24 24
3995 29 1
3995 38 1
3996 29 8
3996 31 1
3997 4 1
3997 5 10
3997 38 7
3998 16 1
3999 18 1
3999 31 1
4000 29 1
4001 23 1
4001 24 4
4002 28 1
4002 34 1
4003 11 1
4004 5 2
4005 5 1
4006 15 1
4007 29 15
4007 30 2
4008 17 1
4009 31 1
4010 3 1
4011 7 1
4011 8 1
4011 9 1
4011 19 1
4011 34 1
4012 12 1
4012 13 1
4012 14 1
4013 24 3
4014 1 1
4014 2 3
4014 3 15
4014 19 1
4014 29 10
4014 30 1
4014 34 22
4015 2 1
4015 19 1
4016 2 1
4016 3 1
4016 4 1
4016 12 1
4016 16 1
4016 28 1
4016 29 1
4016 34 4
4017 8 1
4017 12 1
4018 19 1
4018 31 1
4019 7 1
4019 8 2
4020 21 2
4020 22 5
4021 4 1
4021 5 1
4021 8 1
4021 16 1
4021 18 2
4021 19 4
4021 22 1
4021 24 1
4021 31 1
4021 34 1
4022 3 1
4023 38 1
4024 15 1
4025 24 3
4025 31 1
4026 18 1
4027 9 1
4027 38 1
4028 5 1
4028 22 1
4029 3 1
4029 24 2
4030 38 1
4031 5 1
4031 24 13
4031 29 1
4032 15 1
4033 19 1
4033 31 6
4034 2 1
4034 34 4
4035 9 4
4035 10 4
4035 11 5
4035 38 1
4036 2 18
4036 3 33
4036 19 1
4036 34 46
4037 18 38
4037 19 29
4037 20 7
4037 28 4
4038 24 1
4039 3 2
4039 5 2
4039 7 2
4039 8 1
4039 15 1
4039 18 3
4039 19 3
4039 24 1
4039 29 1
4039 34 1
4039 38 1
4040 8 5
4041 8 1
4041 12 1
4041 18 1
4041 19 1
4041 20 1
4041 24 2
4041 34 2
4041 38 2
4042 25 1
4042 26 9
4042 28 1
4042 29 1
4043 5 1
4043 31 1
4044 10 1
4044 18 1
4045 20 1
4046 24 1
4047 3 1
4047 16 1
4047 29 1
4047 34 2
4048 5 2
4048 15 1
4048 21 1
4048 22 1
4048 24 2
4049 24 1
4050 3 1
4050 5 2
4050 14 1
4050 18 2
4050 26 1
4050 28 1
4050 30 1
4050 34 1
4050 38 1
4051 21 5
4051 22 4
4052 10 1
4053 16 1
4054 11 5
4054 18 12
4054 19 1
4054 24 1
4055 29 19
4055 30 2
4056 2 1
4056 3 33
4056 34 37
4057 34 1
4058 1 1
4058 2 1
4058 3 1
4058 5 1
4058 19 1
4058 26 1
4058 29 1
4058 34 3
4059 28 1
4060 18 1
4061 4 6
4061 5 19
4061 38 14
4062 5 1
4063 26 4
4063 29 1
4064 3 1
4064 8 1
4064 18 1
4064 26 1
4064 28 1
4064 29 1
4065 34 2
4066 3 1
4067 15 5
4067 16 9
4067 17 8
4068 22 1
4068 31 2
4069 34 1
4070 34 1
4071 8 1
4072 2 2
4072 10 1
4072 26 1
4072 31 6
4072 34 3
4073 16 1
4074 12 1
4075 12 1
4076 19 1
4076 21 1
4076 29 1
4076 38 1
4077 24 5
4078 3 1
4078 34 1
4079 29 1
4080 26 1
4080 31 1
4081 20 1
4082 20 1
4083 12 1
4083 24 1
4084 3 1
4085 7 6
4085 8 17
4086 29 1
4087 3 1
4087 22 1
4088 28 1
4089 3 1
4089 5 1
4089 7 1
4089 24 1
4089 34 2
4090 21 2
4091 21 1
4092 29 11
4092 30 1
4093 24 13
4094 3 1
4094 7 1
4095 12 1
4095 14 2
4096 24 1
4097 21 1
4098 21 1
4099 24 1
4099 38 1
4100 24 1
4101 28 1
4102 10 2
4103 34 1
4104 19 1
4104 28 1
4104 34 1
4105 29 2
4105 34 1
4106 2 1
4106 3 1
4106 18 1
4106 19 1
4106 24 3
4106 29 1
4106 31 1
4106 38 2
4107 5 1
4107 15 2
4107 18 1
4107 19 1
4107 34 1
4108 5 1
4109 3 1
4109 34 1
4110 34 1
4110 38 1
4111 1 2
4111 2 33
4111 3 48
4111 34 57
4112 18 6
4112 19 7
4112 34 1
4113 5 1
4113 38 2
4114 10 1
4114 14 1
4115 19 1
4116 12 1
4117 5 1
4117 29 1
4117 31 1
4118 3 1
4118 7 1
4118 14 1
4118 22 1
4118 24 1
4118 34 1
4118 38 2
4119 12 1
4119 14 1
4119 34 1
4119 38 1
4120 28 1
4121 19 1
4122 10 1
4123 21 1
4124 22 1
4124 28 1
4125 5 1
4125 24 1
4125 31 1
4125 38 1
4126 21 26
4126 22 8
4127 29 11
4127 30 1
4128 29 10
4129 12 2
4129 31 1
4130 24 9
4131 2 1
4131 4 1
4131 5 3
4131 15 1
4131 18 1
4131 19 2
4131 20 1
4131 22 1
4131 24 3
4131 29 3
4131 31 1
4131 38 1
4132 12 4
4133 5 7
4133 38 7
4134 3 1
4134 15 1
4135 19 1
4135 34 1
4136 3 1
4137 16 2
4137 20 1
4138 24 1
4139 2 1
4139 3 2
4139 5 1
4139 10 1
4139 18 2
4139 21 1
4139 26 1
4139 34 1
4139 38 1
4140 5 1
4140 31 12
4140 34 1
4141 5 1
4141 11 1
4142 21 1
4143 3 1
4144 3 1
4144 29 4
4145 29 1
4146 11 1
4147 31 1
4148 2 1
4148 29 1
4148 34 1
4149 2 1
4149 9 12
4149 10 14
4149 11 13
4150 34 1
4151 24 4
4152 7 1
4152 9 1
4152 10 4
4152 11 2
4153 34 1
4154 19 1
4155 12 1
4155 34 1
4156 29 10
4157 7 2
4157 8 4
4157 18 2
4157 19 1
4157 21 5
4157 22 7
4158 31 1
4158 38 1
4159 12 1
4160 34 1
4161 5 1
4162 7 1
4162 18 18
4162 19 24
4162 20 17
4163 24 2
4164 7 6
4164 8 10
4165 3 1
4165 24 2
4166 19 1
4167 29 9
4167 31 1
4168 24 1
4169 18 1
4169 38 1
4170 3 1
4170 14 1
4171 19 1
4172 5 1
4172 11 1
4172 20 1
4172 24 2
4172 31 1
4173 5 1
4174 12 1
4174 13 1
4174 14 4
4175 18 3
4175 19 9
4175 20 7
4176 8 1
4176 24 2
4176 29 1
4177 2 4
4177 3 7
4177 34 7
4178 9 19
4178 10 19
4178 11 11
4179 3 3
4179 18 1
4179 21 1
4179 24 2
4179 31 1
4179 38 1
4180 14 1
4181 12 1
4182 10 1
4183 1 5
4183 2 28
4183 3 32
4183 34 41
4184 18 1
4184 21 6
4184 22 2
4184 24 2
4184 34 1
4185 16 1
4186 34 1
4187 24 1
4188 38 1
4189 12 7
4189 14 10
4189 18 1
4190 14 1
4190 21 1
4191 34 1
4192 2 7
4192 3 6
4192 28 5
4192 34 4
4193 9 14
4193 10 16
4193 11 11
4194 3 1
4195 34 1
4196 15 1
4198 2 1
4199 31 1
4200 4 2
4200 5 12
4200 17 1
4200 38 16
4201 2 5
4201 3 9
4201 34 14
4202 18 1
4202 19 1
4202 23 1
4202 24 16
4203 29 1
4203 38 1
4204 16 1
4205 4 6
4205 5 33
4205 20 1
4205 21 1
4205 22 1
4205 24 1
4205 29 5
4205 38 39
4206 24 5
4206 29 1
4207 4 1
4207 9 1
4208 5 1
4208 15 1
4208 29 8
4209 31 7
4210 3 2
4210 34 1
4211 19 1
4212 21 1
4213 12 6
4213 14 6
4214 31 1
4215 2 2
4215 3 13
4215 34 24
4216 2 1
4216 3 4
4216 9 1
4216 34 11
4217 2 6
4217 3 10
4217 34 10
4218 12 1
4219 2 1
4219 5 1
4219 19 1
4219 20 1
4219 34 1
4219 38 1
4220 31 1
4221 4 1
4221 19 2
4221 20 1
4222 4 1
4222 5 4
4222 17 1
4222 38 8
4223 19 1
4224 14 1
4224 15 2
4224 16 3
4224 17 2
4225 14 1
4226 12 1
4227 21 7
4227 22 4
4228 29 1
4229 2 1
4230 19 1
4230 21 28
4230 22 17
4231 14 1
4232 12 21
4232 14 10
4233 1 1
4233 2 7
4233 3 17
4233 34 24
4234 2 1
4235 2 4
4235 3 4
4235 14 1
4235 34 7
4236 8 1
4236 12 1
4237 21 1
4238 18 15
4238 19 20
4238 20 1
4239 14 1
4239 18 6
4239 19 9
4240 38 1
4241 12 1
4242 5 1
4242 29 2
4243 10 1
4244 5 1
4245 19 1
4246 11 1
4247 20 1
4247 34 1
4248 5 1
4249 12 1
4250 3 1
4250 38 1
4251 4 1
4251 9 1
4251 11 1
4251 20 1
4251 31 1
4251 34 1
4252 8 1
4253 34 1
4254 21 1
4254 24 7
4255 21 4
4255 22 2
4256 3 1
4257 29 1
4258 4 5
4258 5 15
4258 38 17
4259 8 1
4259 18 1
4259 34 2
4260 3 1
4261 3 3
4261 18 1
4261 24 1
4261 26 2
4261 29 5
4261 30 1
4261 31 5
4261 34 3
4262 14 1
4262 24 7
4262 29 2
4263 5 1
4263 21 12
4263 22 9
4264 8 1
4264 34 1
4265 5 1
4266 3 1
4266 9 3
4266 10 2
4266 11 1
4266 22 1
4267 23 1
4267 24 1
4268 18 8
4268 19 15
4268 20 2
4268 22 1
4269 12 11
4269 14 2
4270 2 1
4270 29 1
4270 31 1
4271 12 23
4271 14 13
4272 15 7
4272 16 2
4272 17 10
4273 2 1
4273 27 1
4273 28 10
4274 3 1
4275 8 1
4275 18 1
4275 34 1
4276 38 1
4277 12 4
4277 14 9
4277 19 1
4278 17 1
4279 20 1
4280 15 14
4280 16 10
4280 17 13
4280 24 1
4281 24 5
4282 34 1
4283 19 1
4284 20 1
4285 34 1
4286 21 2
4286 22 1
4287 17 1
4288 17 1
4289 29 2
4290 23 1
4290 24 7
4291 10 1
4291 31 4
4291 38 1
4292 14 1
4292 18 22
4292 19 18
4292 20 6
4293 15 1
4293 17 1
4294 15 1
4295 18 1
4295 20 1
4296 2 3
4297 2 1
4298 18 6
4298 19 6
4298 20 4
4299 1 1
4299 2 2
4299 3 5
4299 11 1
4299 34 6
4300 11 1
4301 24 1
4302 12 2
4302 14 3
4302 19 1
4303 24 6
4304 16 1
4305 29 1
4306 4 3
4306 5 23
4306 16 1
4306 38 28
4307 29 1
4308 18 1
4308 24 1
4308 38 1
4309 20 1
4310 8 1
4310 11 1
4311 29 17
4311 30 1
4312 29 1
4313 2 3
4313 3 5
4313 21 1
4313 38 1
4314 5 1
4314 34 1
4315 5 1
4316 14 1
4317 38 1
4318 18 1
4318 28 5
4318 34 1
4319 8 1
4320 15 1
4321 16 1
4322 19 1
4323 21 1
4324 29 1
4326 10 1
4326 12 1
4326 24 13
4326 29 1
4327 12 1
4328 29 1
4329 21 10
4329 22 8
4330 1 1
4330 2 19
4330 3 29
4330 16 1
4330 24 12
4330 34 50
4331 5 1
4331 9 1
4331 10 1
4331 11 1
4331 12 1
4331 21 1
4331 31 1
4332 22 1
4333 3 1
4333 38 1
4334 4 1
4335 34 1
4336 38 1
4337 15 4
4337 16 1
4337 17 4
4338 29 4
4339 3 1
4340 38 1
4341 34 1
4342 5 1
4343 3 1
4344 31 9
4345 34 1
4346 24 4
4346 29 5
4347 9 1
4348 11 1
4348 12 7
4348 14 10
4349 29 1
4349 34 1
4350 4 2
4350 5 8
4350 34 1
4350 38 5
4351 19 1
4352 5 1
4352 15 1
4352 24 1
4353 19 1
4353 21 1
4353 29 1
4353 31 4
4353 38 1
4354 24 1
4355 3 1
4355 29 1
4356 18 1
4356 29 1
4356 31 1
4356 38 2
4357 2 1
4357 19 1
4357 29 13
4357 30 1
4358 18 4
4358 19 1
4358 20 1
4359 18 13
4359 19 21
4359 20 4
4359 34 1
4359 38 1
4360 4 1
4361 14 1
4361 19 2
4361 22 1
4361 24 1
4362 12 1
4362 24 1
4362 28 7
4363 21 12
4363 22 7
4364 31 15
4365 38 1
4366 31 1
4367 22 1
4368 28 1
4369 28 1
4370 22 1
4371 29 1
4372 12 1
4372 18 24
4372 19 28
4372 20 7
4373 3 4
4373 34 5
4374 31 1
4375 21 39
4375 22 36
4375 38 1
4376 3 1
4376 9 16
4376 10 11
4376 11 7
4376 18 28
4376 19 41
4376 20 22
4377 4 1
4377 5 6
4377 15 1
4377 38 5
4378 24 2
4379 2 8
4379 3 27
4379 4 1
4379 5 5
4379 22 1
4379 34 47
4379 38 9
4380 1 1
4380 2 12
4380 3 20
4380 34 18
4381 20 1
4381 29 10
4381 30 2
4382 31 1
4383 38 1
4384 18 1
4384 21 1
4384 24 1
4385 2 1
4385 5 1
4385 9 2
4385 10 1
4385 11 1
4385 12 1
4385 18 2
4385 19 2
4385 21 1
4385 29 1
4385 34 2
4385 38 4
4386 7 1
4387 31 5
4388 8 1
4389 20 1
4390 28 5
4391 34 1
4392 3 1
4393 24 1
4394 5 1
4395 31 5
4396 21 1
4396 26 1
4397 29 1
4398 24 2
4399 5 1
4399 34 1
4400 3 2
4401 18 9
4401 19 25
4401 20 7
4402 12 6
4402 14 4
4403 18 2
4404 19 1
4405 3 1
4406 31 1
4407 16 1
4408 34 1
4409 14 1
4410 7 2
4410 12 33
4410 13 1
4410 14 41
4410 19 1
4411 18 1
4411 19 1
4412 28 1
4413 11 1
4414 4 1
4415 29 1
4416 24 1
4417 2 1
4418 18 2
4419 34 1
4420 4 4
4420 5 18
4420 12 1
4420 15 6
4420 16 4
4420 17 3
4420 18 1
4420 38 18
4421 16 1
4422 5 1
4423 12 14
4423 14 13
4423 19 1
4424 9 1
4424 21 1
4424 26 1
4424 34 1
4425 2 2
4425 3 3
4426 18 1
4427 18 2
4427 19 12
4427 20 3
4428 1 1
4428 2 5
4428 3 15
4428 34 15
4429 29 5
4430 18 3
4430 19 3
4430 20 1
4431 14 1
4432 34 1
4433 2 4
4433 3 11
4433 34 14
4434 34 1
4435 2 20
4435 3 36
4435 24 1
4435 34 49
4436 25 1
4436 26 2
4437 34 1
4438 18 13
4438 19 10
4438 20 4
4439 19 1
4440 9 1
4440 11 1
4441 12 1
4442 4 1
4443 3 1
4443 28 2
4444 11 1
4445 24 1
4446 31 5
4447 3 3
4447 24 1
4447 34 4
4448 5 1
4448 38 1
4449 29 1
4449 34 1
4450 12 1
4450 30 1
4451 2 2
4451 3 2
4451 34 1
4452 28 1
4452 29 2
4453 2 1
4453 18 1
4454 8 1
4455 2 3
4455 3 5
4455 34 10
4455 38 1
4456 2 1
4456 21 1
4457 29 1
4458 18 3
4458 19 1
4459 9 1
4459 24 1
4460 4 6
4460 5 36
4460 24 1
4460 28 6
4460 38 33
4461 29 16
4462 12 9
4462 14 9
4462 31 1
4463 29 7
4464 38 1
4465 15 1
4466 2 1
4466 24 8
4467 28 5
4468 22 1
4469 18 1
4470 34 1
4471 21 7
4471 22 3
4471 24 1
4472 15 15
4472 16 11
4472 17 8
4473 24 1
4474 5 1
4475 1 2
4475 2 16
4475 3 33
4475 34 46
4476 34 1
4477 4 1
4477 5 1
4477 38 2
4478 18 1
4479 38 1
4480 12 2
4480 14 1
4481 9 1
4481 15 1
4481 16 1
4481 17 2
4482 29 1
4482 34 2
4483 20 1
4484 29 1
4485 29 1
4486 20 1
4487 8 1
4487 29 9
4487 30 1
4488 24 1
4489 3 1
4490 2 1
4491 9 1
4491 10 1
4491 11 1
4492 22 1
4492 29 1
4492 34 1
4492 38 1
4493 18 1
4493 19 1
4494 26 7
4495 19 1
4496 19 1
4496 34 1
4497 10 2
4497 21 1
4497 22 1
4498 19 1
4500 5 1
4500 31 1
4500 38 1
4501 3 1
4502 31 4
4503 18 35
4504 12 2
4505 18 1
4506 29 5
4507 12 1
4508 8 1
4509 18 1
4510 26 1
4510 29 13
4510 30 1
4510 34 1
4511 12 1
4511 34 1
4512 15 1
4512 24 4
4513 31 1
4514 18 17
4514 19 33
4514 20 8
4515 7 1
4516 4 2
4516 5 6
4516 34 1
4516 38 23
4517 34 1
4518 24 2
4519 24 20
4520 9 2
4520 10 1
4520 22 2
4521 18 1
4522 18 1
4523 24 1
4524 29 1
4524 38 1
4525 34 1
4526 3 1
4527 24 1
4528 2 3
4528 3 11
4528 18 1
4528 34 23
4529 3 4
4529 28 1
4529 34 4
4530 3 1
4530 7 2
4530 8 3
4530 21 1
4531 3 1
4532 3 1
4532 5 1
4532 19 2
4532 31 1
4533 1 1
4533 2 8
4533 3 20
4533 19 1
4533 34 47
4534 29 9
4535 19 2
4535 24 1
4536 19 2
4536 20 1
4537 12 6
4537 14 5
4537 21 1
4538 34 1
4539 34 1
4540 7 4
4540 8 2
4540 34 1
4541 15 1
4542 24 1
4543 16 1
4544 21 1
4544 24 1
4544 28 5
4545 26 1
4546 14 2
4547 14 1
4548 17 1
4548 18 2
4548 34 2
4549 20 1
4550 5 1
4550 19 1
4551 16 1
4551 28 8
4552 9 1
4553 5 1
4554 19 1
4555 24 3
4556 34 1
4557 2 1
4557 21 2
4557 31 3
4558 4 1
4558 5 6
4558 38 4
4559 24 1
4560 12 1
4561 24 12
4562 17 1
4563 3 1
4564 5 2
4564 12 1
4564 14 5
4564 38 3
4565 18 4
4565 19 13
4565 20 1
4566 12 7
4566 14 3
4567 30 1
4568 34 1
4569 26 2
4570 4 2
4570 5 7
4570 38 2
4571 31 1
4572 15 1
4573 1 1
4573 2 12
4573 3 26
4573 24 1
4573 26 1
4573 34 24
4574 11 1
4574 19 1
4575 12 1
4576 19 1
4576 29 9
4576 30 2
4576 38 1
4577 38 1
4578 24 14
4579 18 1
4579 29 1
4579 34 1
4580 21 1
4580 29 3
4580 30 1
4581 2 1
4581 3 18
4581 34 32
4582 29 3
4583 18 6
4583 19 4
4583 20 3
4584 31 1
4585 29 2
4586 31 1
4587 34 1
4588 22 1
4589 5 1
4590 3 1
4590 5 1
4590 10 1
4590 28 8
4591 5 1
4591 24 1
4591 34 1
4592 3 1
4593 4 5
4593 5 10
4593 18 16
4593 19 9
4593 20 3
4593 21 1
4593 38 12
4594 3 1
4595 5 1
4596 29 5
4597 4 1
4598 4 4
4598 5 19
4598 21 1
4598 38 35
4599 14 1
4600 12 3
4600 14 1
4600 15 1
4600 31 1
4601 21 1
4601 31 3
4602 9 1
4602 21 1
4603 24 1
4604 1 1
4604 4 1
4604 14 1
4604 19 2
4604 28 1
4604 29 2
4605 2 2
4605 3 2
4605 5 1
4605 15 1
4605 19 1
4606 31 9
4607 29 11
4608 34 1
4609 4 5
4609 5 14
4609 38 14
4610 7 1
4611 5 1
4612 18 1
4613 24 1
4614 34 1
4614 38 1
4615 10 2
4615 11 1
4615 16 1
4615 17 1
4615 18 1
4615 19 2
4615 24 1
4615 29 3
4615 34 2
4615 38 1
4616 21 3
4616 22 4
4616 34 1
4617 28 2
4618 21 1
4618 24 1
4618 28 8
4619 34 1
4620 18 1
4621 24 3
4622 3 1
4622 28 5
4622 29 4
4623 29 5
4623 38 1
4624 31 2
4625 3 1
4625 10 1
4625 11 3
4625 12 2
4625 34 2
4626 34 1
4627 1 1
4627 2 6
4627 3 14
4627 34 12
4628 34 1
4629 34 1
4630 20 1
4630 31 1
4630 38 1
4631 21 1
4632 2 7
4632 3 15
4632 29 1
4632 34 19
4633 2 4
4633 3 8
4633 34 20
4634 17 1
4635 15 1
4635 19 1
4636 3 1
4637 15 1
4638 34 1
4639 28 1
4640 20 1
4640 22 1
4640 38 1
4641 26 3
4642 29 25
4642 30 3
4643 23 1
4643 24 14
4644 10 2
4644 12 1
4644 38 1
4645 21 1
4647 24 4
4648 2 2
4649 34 1
4650 10 1
4651 31 1
4652 12 1
4652 21 1
4652 29 17
4652 30 2
4653 38 1
4654 5 1
4655 9 1
4656 18 1
4656 24 4
4656 31 1
4656 34 1
4657 2 1
4658 5 9
4658 38 9
4659 7 1
4660 5 1
4661 14 1
4662 29 1
4663 3 2
4663 20 1
4663 22 1
4663 28 3
4663 34 1
4664 2 1
4664 3 1
4664 34 1
4665 29 1
4666 34 1
4667 5 1
4667 19 1
4667 38 1
4668 21 28
4668 22 12
4669 38 1
4670 34 1
4671 22 1
4672 38 1
4673 14 1
4674 5 1
4675 3 1
4676 18 5
4676 19 6
4676 20 2
4677 9 1
4677 11 1
4677 24 3
4678 5 1
4679 34 1
4680 2 1
4680 24 1
4680 29 2
4680 31 5
4681 12 1
4682 5 1
4682 8 1
4682 28 1
4683 29 1
4684 21 1
4685 24 1
4686 29 14
4687 34 1
4688 4 6
4688 5 21
4688 15 1
4688 21 1
4688 34 2
4688 38 16
4689 24 2
4690 4 6
4690 5 13
4690 38 12
4691 2 1
4691 3 1
4691 12 1
4691 26 1
4692 2 8
4692 3 16
4692 34 27
4693 19 1
4693 34 1
4694 2 1
4694 3 1
4694 5 1
4694 19 1
4694 25 1
4695 4 1
4696 23 1
4696 24 48
4696 29 1
4697 3 2
4698 3 1
4698 29 4
4698 30 1
4699 25 2
4699 26 8
4699 28 4
4700 5 1
4700 21 1
4701 28 1
4701 38 1
4702 29 1
4703 24 1
4704 12 1
4705 5 1
4706 14 1
4707 18 1
4708 38 1
4709 3 1
4710 3 1
4711 4 1
4711 7 6
4711 8 12
4712 2 1
4712 3 4
4712 26 3
4712 34 6
4713 21 1
4714 34 1
4715 29 13
4716 2 4
4716 3 2
4716 8 1
4716 9 1
4716 11 1
4716 16 1
4716 19 2
4716 24 3
4716 29 2
4716 34 7
4717 4 1
4718 2 1
4718 34 2
4719 28 1
4719 29 17
4719 30 2
4720 3 1
4720 5 1
4720 21 1
4721 34 1
4722 29 1
4723 38 1
4724 3 1
4724 11 1
4724 16 1
4724 18 2
4724 19 2
4724 29 2
4724 34 1
4724 38 1
4725 38 1
4726 30 1
4727 31 1
4728 4 1
4729 3 3
4730 5 1
4731 20 1
4732 38 1
4733 18 1
4734 10 1
4734 11 2
4734 21 19
4734 22 14
4734 34 1
4735 20 2
4736 22 1
4737 2 1
4737 3 1
4737 19 1
4737 24 1
4737 29 1
4737 34 1
4738 2 2
4738 3 7
4738 34 5
4738 38 1
4739 19 1
4740 29 18
4740 30 2
4741 28 10
4742 31 1
4743 8 1
4744 2 2
4745 5 1
4746 38 1
4747 24 1
4748 21 1
4749 3 1
4749 4 1
4749 18 1
4749 24 1
4749 28 1
4750 22 1
4751 24 2
4752 31 12
4753 16 1
4753 31 1
4754 19 1
4755 3 1
4755 29 18
4755 30 4
4755 34 1
4756 21 1
4756 28 1
4757 21 1
4758 18 1
4759 15 7
4759 16 9
4759 17 4
4760 12 1
4761 19 1
4762 7 1
4763 24 1
4764 14 1
4764 34 1
4765 8 1
4766 21 1
4766 24 1
4767 29 1
4767 34 1
4768 38 1
4769 3 1
4770 11 1
4770 20 1
4770 24 8
4771 8 1
4772 7 6
4772 8 4
4772 19 1
4773 14 1
4774 12 7
4774 14 10
4774 34 1
4775 15 1
4776 38 1
4777 34 1
4778 34 1
4779 15 1
4779 17 1
4780 5 1
4781 4 5
4781 5 36
4781 12 1
4781 19 1
4781 38 35
4782 29 1
4783 1 1
4783 2 12
4783 3 19
4783 34 20
4784 5 1
4784 12 7
4784 14 7
4784 38 1
4785 21 8
4785 22 4
4786 34 1
4787 31 4
4788 12 1
4788 19 1
4789 14 2
4790 3 1
4791 2 1
4792 7 4
4792 8 11
4793 18 1
4794 12 1
4795 31 1
4796 5 1
4796 16 1
4796 28 2
4797 10 1
4798 22 1
4798 34 1
4798 38 1
4799 19 1
4800 2 7
4800 3 17
4800 34 16
4800 38 1
4801 12 6
4801 14 2
4802 4 1
4802 5 7
4802 18 2
4802 19 8
4802 20 1
4802 38 4
4803 34 1
4804 22 1
4804 24 1
4805 28 13
4806 2 1
4806 3 1
4807 24 9
4808 12 1
4808 14 1
4809 2 1
4809 3 2
4809 24 1
4809 34 3
4810 3 1
4810 9 1
4811 24 1
4812 4 1
4813 38 1
4814 29 9
4814 30 1
4815 5 1
4816 21 1
4817 3 1
4818 3 1
4818 18 1
4818 21 1
4818 28 6
4819 3 1
4820 1 1
4821 28 1
4822 24 14
4823 19 2
4823 22 1
4823 29 11
4823 30 1
4823 38 1
4824 24 10
4825 5 1
4826 29 1
4827 2 1
4828 3 1
4829 18 1
4830 16 1
4831 12 7
4831 14 2
4832 38 1
4833 4 1
4833 19 1
4834 24 29
4834 38 1
4835 12 1
4836 29 1
4837 28 2
4838 5 1
4839 11 1
4839 29 11
4839 30 2
4840 18 1
4840 21 2
4841 14 1
4841 21 11
4841 22 12
4842 3 1
4842 15 2
4842 16 1
4842 17 2
4842 21 1
4843 16 1
4844 10 1
4844 31 15
4844 33 1
4845 26 1
4846 2 3
4846 3 6
4846 34 13
4847 29 1
4848 2 6
4848 3 13
4848 34 16
4849 24 5
4850 2 1
4850 26 2
4851 18 2
4851 19 4
4851 20 2
4852 12 12
4852 13 1
4852 14 23
4852 18 1
4852 24 2
4852 38 1
4853 34 1
4854 18 2
4854 21 1
4854 22 3
4855 10 1
4855 28 1
4856 3 1
4856 5 2
4856 12 1
4856 18 1
4856 19 2
4856 21 1
4856 29 1
4856 34 1
4857 9 11
4857 10 11
4857 11 12
4857 18 1
4858 3 1
4859 5 1
4860 24 8
4861 2 1
4861 11 1
4861 31 4
4862 3 1
4862 34 1
4863 29 23
4863 30 1
4863 34 1
4864 5 1
4865 11 1
4866 18 5
4866 19 7
4867 29 6
4867 30 1
4868 18 1
4869 31 1
4870 19 1
4871 38 1
4872 16 1
4872 22 1
4872 28 1
4873 38 1
4874 1 1
4874 4 1
4874 5 2
4874 10 3
4874 11 1
4874 17 1
4874 21 1
4874 24 7
4874 29 1
4874 31 1
4874 34 2
4875 34 1
4876 7 8
4876 8 13
4877 1 1
4877 2 19
4877 3 50
4877 34 56
4878 18 6
4878 19 3
4878 20 1
4878 34 1
4879 34 1
4880 3 1
4880 4 1
4880 24 2
4880 29 1
4881 18 1
4882 19 1
4883 21 18
4883 22 12
4884 9 1
4884 25 1
4884 26 1
4884 38 1
4885 31 1
4886 17 1
4886 29 2
4887 12 1
4888 5 2
4889 3 1
4890 12 49
4890 13 2
4890 14 26
4891 5 1
4891 18 1
4891 24 1
4891 29 1
4891 34 2
4891 38 1
4892 24 3
4892 29 2
4892 34 1
4893 8 1
4893 34 1
4894 24 3
4895 12 1
4896 3 1
4897 22 1
4898 3 1
4899 16 1
4900 19 1
4901 34 1
4902 34 1
4903 12 3
4904 2 1
4904 3 3
4904 11 1
4904 14 1
4904 18 1
4904 19 2
4904 26 1
4904 29 3
4904 34 1
4905 14 1
4905 21 5
4905 22 7
4906 28 1
4907 34 1
4908 29 15
4908 31 8
4909 18 1
4909 21 27
4909 22 12
4910 26 1
4911 28 4
4912 4 4
4912 5 13
4912 21 1
4912 38 17
4913 38 1
4914 38 2
4915 31 1
4916 2 10
4916 3 34
4916 34 56
4917 21 1
4918 10 1
4918 12 1
4919 34 1
4920 4 1
4920 31 1
4921 31 9
4922 2 1
4922 5 2
4922 10 1
4922 16 1
4922 18 1
4922 22 1
4922 23 1
4922 29 1
4922 31 1
4923 31 12
4924 21 6
4924 22 9
4924 29 1
4925 2 3
4925 3 6
4925 4 1
4925 19 1
4925 21 1
4925 30 1
4925 34 5
4926 3 1
4927 18 1
4927 31 5
4928 5 1
4928 7 2
4928 8 3
4929 16 1
4930 29 11
4930 30 1
4931 2 15
4931 3 22
4931 19 1
4931 34 25
4932 29 1
4933 9 12
4933 10 24
4933 11 17
4934 34 1
4935 22 1
4935 28 1
4935 29 1
4935 31 1
4935 34 2
4935 38 1
4936 8 1
4937 5 1
4937 18 29
4937 19 42
4937 20 4
4938 4 1
4939 22 1
4940 19 1
4941 24 1
4942 7 1
4943 4 1
4944 3 1
4945 3 1
4946 24 2
4946 31 6
4947 3 1
4947 18 30
4947 19 36
4947 20 20
4948 5 1
4949 21 9
4949 22 12
4950 24 6
4951 29 1
4952 34 1
4953 21 7
4953 22 7
4953 34 1
4954 5 1
4955 7 8
4955 8 4
4956 2 16
4956 3 19
4956 34 25
4957 31 1
4958 34 1
4959 31 1
4960 12 1
4960 14 1
4960 18 1
4960 20 2
4960 24 1
4960 34 1
4961 3 3
4961 18 1
4961 38 1
4962 4 1
4962 5 6
4962 34 1
4962 38 5
4963 19 1
4963 21 19
4963 22 17
4964 8 1
4965 16 1
4966 19 1
4967 18 18
4967 19 15
4967 20 2
4968 8 1
4969 12 1
4970 12 1
4970 38 1
4971 1 2
4971 2 10
4971 3 6
4971 10 1
4971 34 9
4972 22 1
4973 19 1
4974 2 1
4974 3 13
4974 34 11
4975 14 1
4975 18 2
4975 19 1
4975 21 2
4975 24 1
4975 29 1
4975 34 1
4975 38 2
4976 4 1
4976 15 12
4976 16 4
4976 17 9
4976 18 1
4976 21 1
4977 11 3
4978 24 1
4979 2 1
4980 12 2
4980 14 2
4981 4 1
4981 5 7
4981 38 4
4982 14 1
4983 28 4
4984 19 1
4984 21 14
4984 22 5
4985 19 1
4986 24 1
4986 29 1
4987 2 5
4987 3 21
4987 34 25
4988 26 2
4988 31 3
4989 20 1
4990 4 1
4990 5 5
4990 24 1
4990 38 1
4991 5 1
4991 29 1
4992 24 18
4993 2 1
4993 4 6
4993 5 11
4993 38 13
4994 3 1
4995 34 1
4996 38 1
4997 19 1
4998 10 1
4999 29 5
5000 3 1
5000 5 2
5001 24 8
5002 5 1
5003 15 9
5003 16 5
5003 17 9
5004 5 1
5005 18 2
5005 19 1
5006 4 3
5006 5 13
5006 38 15
5007 3 1
5008 28 3
5008 31 1
5009 3 1
5009 4 1
5009 5 3
5009 10 1
5009 11 1
5009 12 1
5009 14 1
5009 19 2
5009 24 1
5009 29 1
5009 34 1
5009 38 1
5010 2 1
5010 3 1
5010 5 1
5010 10 1
5010 20 1
5010 29 1
5011 3 2
5011 31 1
5012 24 1
5013 38 1
5014 18 2
5014 19 2
5014 22 1
5015 17 2
5016 18 1
5017 4 1
5017 10 1
5017 17 1
5017 28 1
5017 34 2
5018 15 1
5019 34 1
5020 29 1
5021 21 14
5021 22 8
5022 34 1
5023 3 1
5023 4 3
5023 5 24
5023 38 24
5024 29 1
5025 4 7
5025 5 28
5025 38 16
5026 24 6
5027 18 1
5028 34 1
5029 24 2
5030 1 3
5030 2 32
5030 3 41
5030 34 53
5031 9 2
5031 11 1
5032 22 1
5033 15 1
5033 21 1
5033 22 1
5034 17 1
5035 15 12
5035 16 7
5035 17 3
5036 34 1
5037 21 33
5037 22 21
5038 29 10
5038 30 1
5039 24 15
5040 15 5
5040 17 3
5041 2 1
5042 31 3
5043 5 1
5044 18 8
5044 19 9
5044 20 3
5044 22 1
5045 34 1
5046 7 3
5046 8 9
5047 3 1
5048 1 2
5048 2 19
5048 3 26
5048 34 37
5049 12 2
5049 13 1
5049 14 2
5050 5 1
5050 24 6
5050 34 1
5051 1 1
5051 2 8
5051 3 18
5051 7 5
5051 8 10
5051 34 30
5052 22 1
5052 34 2
5052 38 1
5053 2 1
5054 28 1
5055 18 21
5055 19 26
5055 20 5
5056 2 16
5056 3 40
5056 7 1
5056 12 2
5056 14 1
5056 34 45
5056 38 2
5057 4 1
5057 34 1
5058 4 1
5058 5 21
5058 38 29
5059 34 1
5060 3 1
5060 18 1
5060 29 1
5060 31 1
5060 38 1
5061 5 1
5062 24 5
5063 24 1
5064 24 19
5065 4 3
5065 5 23
5065 19 2
5065 38 22
5066 26 2
5066 29 1
5067 3 1
5068 18 6
5068 19 11
5068 20 4
5069 12 1
5069 19 1
5069 34 1
5070 28 1
5071 38 1
5072 18 1
5073 34 1
5074 19 2
5074 24 19
5075 5 1
5075 7 2
5075 12 1
5075 17 1
5075 18 1
5075 19 2
5075 22 1
5075 24 1
5075 38 1
5076 38 1
5077 34 1
5078 14 1
5079 7 1
5080 9 8
5080 10 13
5080 11 9
5081 19 2
5081 38 1
5082 24 1
5082 29 3
5082 30 1
5083 12 1
5084 2 12
5084 3 11
5084 34 6
5085 4 8
5085 5 18
5085 38 25
5086 4 1
5086 5 4
5086 34 1
5086 38 3
5087 3 2
5087 10 1
5087 12 1
5087 24 2
5087 29 1
5087 31 1
5087 34 2
5087 38 2
5088 3 1
5089 19 1
5089 21 2
5090 29 1
5091 19 1
5092 12 1
5092 15 2
5092 16 4
5092 17 2
5093 5 1
5094 8 1
5095 24 2
5096 29 1
5097 5 1
5097 20 1
5097 21 3
5097 22 2
5098 4 4
5098 5 8
5098 9 1
5098 38 4
5099 7 3
5099 8 12
5099 22 1
5100 15 1
5100 17 1
5101 8 1
5102 28 3
5103 2 1
5103 14 1
5103 24 3
5104 9 5
5104 10 2
5104 11 3
5104 34 1
5105 12 1
5106 5 1
5107 3 1
5108 38 1
5109 3 1
5110 24 1
5111 18 1
5112 5 1
5113 5 1
5113 22 2
5114 12 2
5114 14 4
5114 24 2
5114 34 1
5115 10 1
5116 3 1
5117 7 3
5117 19 1
5117 24 21
5118 3 1
5119 24 3
5119 26 1
5119 34 1
5120 38 1
5121 5 1
5122 5 2
5122 12 2
5122 31 1
5122 38 2
5123 12 1
5124 34 1
5125 5 1
5126 19 2
5127 24 1
5127 29 12
5128 4 4
5128 5 20
5128 38 24
5129 3 1
5130 3 1
5131 34 1
5132 18 8
5132 19 7
5132 20 4
5133 3 2
5133 34 3
5134 24 1
5135 3 1
5136 5 1
5137 12 1
5137 18 1
5137 24 1
5138 2 1
5139 3 1
5140 12 2
5140 22 1
5141 9 1
5141 10 2
5141 11 1
5142 22 1
5143 9 1
5144 8 2
5145 29 1
5146 28 1
5147 29 8
5148 8 1
5149 29 1
5149 34 1
5150 2 1
5150 3 12
5150 34 7
5151 10 1
5151 21 6
5152 3 1
5152 31 11
5153 4 3
5153 5 24
5153 9 1
5153 10 1
5153 11 1
5153 24 1
5153 38 16
5154 24 1
5155 3 1
5156 11 1
5157 12 24
5157 14 15
5158 16 1
5158 17 1
5159 5 1
5159 23 1
5159 24 1
5159 25 1
5159 26 3
5159 30 1
5160 19 1
5161 38 1
5162 31 7
5163 34 1
5164 12 13
5164 14 6
5165 15 48
5165 16 33
5165 17 33
5165 31 1
5165 34 1
5166 24 6
5166 26 2
5167 21 12
5167 22 5
5167 34 1
5167 38 1
5168 3 1
5168 5 1
5169 18 30
5169 19 44
5169 20 12
5170 7 1
5171 5 1
5171 12 1
5171 14 1
5172 19 3
5173 17 1
5174 34 1
5175 8 2
5176 23 1
5176 24 17
5177 26 1
5178 29 1
5179 28 1
5180 31 3
5181 18 2
5181 19 2
5181 20 1
5182 5 1
5183 2 1
5184 5 1
5185 34 1
5186 24 28
5186 29 12
5186 38 1
5187 5 1
5188 4 3
5188 5 4
5188 38 8
5189 34 1
5190 24 1
5191 29 1
5192 17 1
5193 24 1
5194 4 10
5194 5 40
5194 29 1
5194 38 45
5195 34 1
5196 8 1
5196 28 2
5197 2 1
5197 19 1
5197 22 1
5197 29 32
5197 30 1
5198 15 1
5198 34 2
5199 2 4
5199 3 4
5199 34 7
5200 2 5
5200 3 8
5200 28 1
5200 34 10
5201 19 1
5202 3 1
5202 14 1
5202 24 10
5202 29 1
5203 14 3
5204 2 1
5204 34 1
5205 4 1
5205 28 4
5206 18 1
5207 2 1
5207 34 1
5208 17 1
5209 38 1
5210 3 1
5211 38 2
5212 38 1
5213 24 9
5214 12 1
5215 28 4
5216 2 10
5216 3 30
5216 34 34
5217 34 1
5218 19 1
5218 24 1
5219 29 4
5219 31 1
5219 34 1
5220 8 1
5220 19 2
5220 21 3
5220 22 3
5221 9 1
5221 12 3
5221 14 1
5222 9 1
5223 27 1
5223 28 1
5224 15 1
5225 7 1
5226 4 1
5227 18 1
5227 19 1
5227 21 3
5227 22 6
5228 24 13
5229 29 12
5229 30 3
5230 38 1
5231 15 1
5232 8 1
5233 4 1
5233 5 21
5233 38 13
5234 14 1
5235 3 1
5235 10 1
5235 24 1
5236 2 1
5237 20 1
5237 38 1
5238 2 12
5238 3 20
5238 14 1
5238 34 29
5239 24 1
5240 29 1
5241 23 1
5241 24 13
5241 29 1
5242 7 1
5243 24 5
5244 21 1
5245 3 1
5246 3 1
5246 11 1
5246 12 2
5246 15 1
5246 21 1
5246 34 2
5246 38 2
5247 28 1
5248 4 3
5248 5 14
5248 38 21
5249 7 1
5249 8 1
5250 4 2
5250 5 5
5250 29 1
5250 38 16
5251 3 1
5252 24 14
5253 38 1
5254 34 1
5255 21 1
5256 34 1
5257 4 1
5258 29 5
5259 18 1
5260 34 4
5261 3 1
5261 17 1
5262 18 5
5262 19 11
5262 20 1
5262 29 1
5262 38 1
5263 4 2
5263 5 11
5263 38 15
5264 3 1
5264 29 6
5265 10 1
5265 12 2
5265 15 1
5265 19 3
5265 21 1
5265 29 2
5265 31 1
5265 34 3
5265 38 1
5266 10 1
5266 24 1
5267 34 1
5268 3 1
5268 8 1
5268 24 20
5268 29 1
5268 34 1
5269 7 2
5269 8 5
5269 34 1
5270 1 1
5270 2 17
5270 3 25
5270 34 25
5271 10 1
5271 19 1
5271 34 2
5272 3 1
5272 31 7
5272 38 1
5273 5 1
5274 4 1
5275 10 1
5276 9 1
5276 29 3
5277 34 1
5278 19 1
5279 18 16
5279 19 21
5279 20 6
5279 24 1
5280 31 6
5281 26 1
5282 12 25
5282 14 8
5282 18 5
5282 19 5
5282 20 2
5283 2 1
5283 8 2
5284 19 1
5285 4 1
5285 5 4
5285 29 1
5285 38 6
5286 28 6
5287 2 1
5287 18 14
5287 19 12
5287 20 7
5288 34 1
5289 19 1
5290 19 1
5291 2 1
5291 3 1
5291 26 1
5291 34 1
5292 7 1
5293 4 1
5294 4 4
5294 5 29
5294 38 18
5295 38 1
5296 5 1
5296 9 5
5296 10 11
5296 11 9
5296 20 1
5297 28 2
5298 1 1
5298 2 21
5298 3 50
5298 34 62
5299 8 1
5300 14 1
5300 18 4
5300 19 10
5300 20 3
5301 15 1
5302 38 2
5303 19 1
5304 29 10
5304 30 3
5305 4 5
5305 5 28
5305 38 39
5306 14 1
5306 17 1
5306 28 3
5307 10 3
5307 11 2
5308 24 10
5309 34 1
5310 31 4
5311 38 1
5312 19 1
5313 2 5
5313 3 28
5313 4 1
5313 34 48
5314 15 2
5314 16 1
5314 17 2
5315 24 4
5316 29 1
5317 3 1
5318 38 1
5319 2 1
5320 24 1
5321 2 3
5321 3 4
5321 24 1
5321 34 6
5322 18 1
5323 7 1
5324 24 1
5325 3 1
5325 5 1
5325 24 1
5326 18 1
5326 24 1
5326 29 1
5326 31 2
5327 24 2
5328 24 1
5329 4 3
5329 5 5
5329 38 7
5330 19 1
5331 7 5
5331 8 10
5331 21 1
5332 29 1
5333 1 1
5333 2 22
5333 3 21
5333 34 45
5334 3 1
5335 34 1
5336 19 1
5337 3 1
5338 4 8
5338 5 28
5338 9 3
5338 10 12
5338 11 8
5338 20 1
5338 38 22
5339 2 4
5339 3 6
5339 19 1
5339 34 11
5340 20 1
5341 12 2
5341 18 1
5342 2 1
5342 11 1
5342 17 1
5342 24 1
5343 11 1
5344 29 4
5345 31 3
5345 34 1
5346 5 1
5347 28 6
5348 5 1
5349 19 2
5350 18 37
5350 19 36
5350 20 14
5351 8 1
5351 19 1
5352 21 7
5352 22 6
5353 12 2
5353 13 1
5353 14 1
5353 34 1
5354 24 3
5355 16 1
5356 15 1
5357 2 3
5357 3 9
5357 24 11
5357 34 16
5358 16 1
5359 15 5
5359 16 5
5359 17 5
5360 4 2
5360 5 8
5360 9 9
5360 10 17
5360 11 8
5360 29 1
5360 38 27
5361 3 1
5362 24 1
5363 3 1
5363 18 13
5363 19 18
5363 20 5
5363 38 1
5364 24 8
5364 38 1
5365 7 4
5365 8 3
5365 22 1
5366 4 7
5366 5 22
5366 38 27
5367 20 1
5368 24 28
5368 31 3
5369 2 4
5369 3 3
5369 34 2
5370 5 4
5370 38 8
5371 8 1
5371 15 1
5371 21 1
5372 12 1
5372 28 1
5373 2 2
5374 3 1
5374 5 1
5374 12 1
5374 19 1
5374 21 1
5374 34 2
5375 24 1
5376 34 1
5377 3 1
5377 18 2
5377 19 2
5377 20 1
5378 26 3
5379 18 19
5379 19 36
5379 20 11
5380 18 2
5381 29 8
5382 22 1
5383 24 3
5384 21 14
5384 22 11
5385 22 1
5386 5 1
5387 38 1
5388 29 9
5389 19 1
5389 29 14
5389 30 1
5390 3 1
5391 8 1
5392 3 2
5392 5 1
5392 9 1
5392 10 1
5392 12 1
5392 15 1
5392 20 1
5392 24 2
5392 29 1
5392 34 2
5393 21 7
5393 22 5
5394 31 6
5395 2 2
5395 3 14
5395 12 7
5395 13 1
5395 14 4
5395 34 14
5395 38 1
5396 20 1
5397 19 1
5398 7 1
5399 7 1
5399 38 1
5400 8 1
5401 4 1
5401 7 1
5402 5 1
5402 19 1
5403 2 1
5403 29 7
5403 30 1
5404 29 4
5405 18 1
5405 28 1
5406 29 11
5406 30 1
5406 38 1
5407 1 1
5407 2 1
5407 3 1
5407 5 2
5407 9 1
5407 15 1
5407 29 1
5407 31 1
5407 34 2
5407 38 1
5408 22 1
5408 24 1
5408 38 1
5409 24 1
5410 21 1
5411 20 1
5412 21 16
5412 22 10
5413 29 1
5414 18 26
5414 19 35
5414 20 6
5414 22 1
5414 34 1
5415 7 1
5416 31 1
5417 18 1
5418 3 1
5419 24 1
5420 31 2
5421 9 1
5422 18 1
5423 2 7
5423 3 12
5423 34 20
5424 19 1
5424 22 1
5425 24 1
5426 34 1
5427 17 1
5428 34 1
5429 4 1
5429 18 1
5429 19 2
5429 31 1
5430 24 1
5431 24 1
5432 34 1
5433 18 1
5434 18 1
5435 29 1
5436 15 1
5437 5 1
5437 12 11
5437 14 10
5438 4 1
5439 7 1
5440 26 1
5440 29 1
5441 5 1
5442 16 1
5442 21 1
5443 7 16
5443 8 41
5443 38 1
5444 4 1
5444 12 16
5444 14 23
5445 13 1
5445 21 1
5446 16 1
5447 12 3
5447 14 1
5448 8 1
5449 34 1
5450 2 1
5451 2 7
5451 3 2
5451 34 2
5452 29 18
5452 30 1
5453 15 1
5453 21 1
5454 18 1
5454 34 1
5455 5 2
5456 31 3
5457 3 2
5457 4 1
5457 5 1
5457 10 1
5457 34 1
5458 12 14
5458 14 11
5459 28 5
5460 24 3
5460 34 1
5461 23 1
5461 24 17
5462 3 1
5463 5 1
5464 10 1
5464 18 1
5464 24 2
5465 12 1
5465 13 1
5466 12 7
5466 14 6
5467 21 1
5467 24 1
5468 4 1
5468 10 1
5468 11 1
5468 21 1
5468 22 3
5468 29 2
5468 30 1
5468 34 1
5468 38 1
5469 4 4
5469 5 16
5469 10 1
5469 38 12
5470 3 3
5470 5 1
5470 19 1
5470 24 1
5470 26 1
5470 34 2
5471 34 1
5472 29 1
5473 15 1
5474 21 1
5475 19 1
5475 21 1
5475 28 6
5475 38 1
5476 14 1
5477 26 7
5478 28 2
5479 3 1
5479 5 1
5479 21 1
5479 34 1
5480 3 1
5481 5 1
5482 34 1
5483 29 5
5483 30 1
5484 29 1
5485 24 4
5486 18 1
5487 12 1
5488 4 5
5488 5 19
5488 31 1
5488 38 17
5489 29 25
5489 30 1
5490 34 1
5491 4 10
5491 5 22
5491 38 36
5492 38 1
5493 2 1
5493 19 1
5493 34 1
5494 18 1
5495 3 1
5496 14 1
5496 29 8
5496 30 1
5497 19 1
5497 24 1
5497 34 1
5498 21 1
5499 3 1
5499 18 1
5500 15 2
5500 16 2
5500 19 1
5501 9 1
5502 18 12
5502 19 16
5502 20 2
5503 18 5
5503 19 2
5504 29 11
5504 30 1
5505 1 1
5505 2 22
5505 3 30
5505 34 55
5506 9 6
5506 10 12
5506 11 10
5507 31 9
5508 29 1
5509 14 1
5510 19 2
5511 2 1
5511 4 1
5511 11 1
5511 14 1
5511 17 1
5511 24 1
5511 34 1
5511 38 1
5512 19 1
5513 38 1
5514 3 1
5515 29 14
5516 14 1
5517 38 1
5518 4 1
5518 22 1
5519 24 1
5520 3 1
5521 29 1
5522 5 1
5523 8 1
5524 5 1
5525 4 1
5525 5 2
5525 21 1
5525 38 3
5526 3 1
5526 5 1
5526 28 2
5527 21 1
5528 8 1
5529 31 1
5530 3 1
5530 28 3
5531 24 8
5532 11 1
5532 24 7
5533 19 1
5534 12 1
5535 24 1
5536 18 1
5536 22 1
5537 3 1
5538 34 1
5539 29 7
5540 24 1
5541 24 2
5542 5 1
5542 34 1
5543 3 1
5543 5 1
5543 38 2
5544 3 1
5544 24 16
5544 34 2
5545 15 13
5545 16 10
5545 17 8
5545 18 2
5546 34 1
5547 24 13
5548 2 6
5548 3 3
5548 12 1
5548 18 1
5548 34 21
5549 38 1
5550 21 1
5550 34 1
5551 3 1
5552 38 1
5553 29 10
5553 30 2
5553 31 2
5554 5 1
5555 18 1
5556 2 8
5556 3 12
5556 34 24
5557 5 1
5557 25 1
5557 26 4
5558 1 1
5558 2 7
5558 3 35
5558 34 55
5559 22 1
5560 10 1
5560 24 1
5561 1 2
5561 2 10
5561 3 41
5561 34 54
5562 24 1
5563 29 1
5564 24 1
5565 34 1
5566 1 1
5566 2 10
5566 3 28
5566 34 25
5567 18 1
5568 18 1
5569 12 1
5569 14 1
5570 9 14
5570 10 33
5570 11 7
5571 34 1
5572 19 1
5573 2 5
5573 3 13
5573 34 8
5574 24 21
5575 4 1
5576 22 1
5577 4 3
5577 5 7
5577 8 1
5577 38 6
5578 23 1
5578 24 18
5579 24 1
5580 12 28
5580 13 1
5580 14 13
5580 18 6
5580 19 15
5580 20 3
5581 18 1
5581 24 9
5582 12 1
5583 2 1
5583 4 6
5583 5 38
5583 7 1
5583 21 1
5583 38 25
5584 2 1
5584 5 1
5585 34 1
5586 14 1
5587 3 1
5587 24 1
5587 34 1
5588 1 1
5588 2 25
5588 3 45
5588 34 57
5589 34 1
5590 38 1
5591 4 7
5591 5 24
5591 38 33
5592 15 1
5592 17 1
5593 5 1
5594 14 1
5595 18 1
5596 8 1
5597 28 12
5598 18 16
5598 19 24
5598 20 12
5598 24 1
5599 7 1
5599 18 38
5599 19 36
5599 20 14
5599 21 1
5600 34 1
5601 18 1
5602 21 1
5602 23 1
5602 24 16
5603 38 1
5604 38 1
5605 9 1
5605 34 1
5606 29 1
5607 3 2
5608 12 1
5609 4 1
5610 21 2
5610 22 2
5611 34 1
5612 21 1
5612 29 18
5612 30 1
5613 34 1
5614 10 1
5614 23 1
5614 24 17
5615 19 1
5616 3 2
5616 26 1
5616 34 1
5617 28 1
5618 19 1
5619 34 1
5620 24 1
5621 28 1
5622 14 1
5623 3 1
5624 18 1
5625 23 1
5625 24 8
5626 3 1
5626 24 4
5627 15 1
5627 17 1
5627 18 1
5627 31 1
5628 2 6
5628 3 8
5628 34 13
5629 5 1
5630 29 6
5631 3 1
5631 28 1
5632 19 1
5633 12 22
5633 13 2
5633 14 20
5634 3 1
5634 34 2
5635 34 1
5636 18 1
5637 34 1
5638 10 1
5639 12 13
5639 14 8
5640 20 1
5641 18 7
5641 19 9
5641 20 6
5641 21 1
5642 12 1
5643 8 1
5644 5 1
5644 8 1
5645 2 1
5645 29 1
5645 34 2
5645 38 1
5646 7 2
5646 8 3
5646 19 1
5647 25 1
5648 3 1
5649 31 3
5650 2 1
5650 3 1
5650 12 1
5650 18 1
5650 19 1
5650 21 1
5650 28 1
5650 29 2
5650 34 4
5650 38 2
5651 23 2
5651 24 6
5652 18 3
5652 19 7
5653 5 2
5654 15 1
5654 16 2
5654 17 1
5654 19 1
5655 38 1
5656 12 1
5657 9 1
5657 19 1
5658 24 1
5659 18 7
5659 19 6
5659 20 3
5660 20 1
5661 4 1
5661 5 2
5661 12 1
5661 15 4
5661 16 3
5661 17 2
5661 18 1
5661 28 1
5662 18 1
5662 19 1
5662 20 1
5663 11 1
5663 24 9
5664 12 1
5665 18 1
5666 34 1
5667 34 1
5668 24 6
5669 38 1
5670 15 1
5671 2 1
5672 5 1
5672 17 1
5672 20 1
5672 21 1
5673 7 8
5673 8 8
5674 12 1
5675 34 2
5676 19 1
5677 29 30
5677 30 2
5678 5 1
5678 24 5
5679 5 1
5679 10 1
5680 2 9
5680 3 7
5680 34 15
5681 5 1
5682 20 1
5682 34 1
5683 10 2
5683 34 1
5684 19 1
5685 3 1
5686 22 1
5687 3 1
5687 5 1
5687 18 1
5687 19 1
5687 38 1
5688 5 1
5688 24 1
5689 18 1
5690 21 1
5690 24 1
5691 34 1
5692 38 1
5693 5 1
5693 26 1
5693 29 4
5693 31 1
5694 1 1
5694 5 1
5695 14 1
5695 19 1
5695 38 1
5696 12 1
5696 29 32
5696 30 4
5697 31 1
5698 15 36
5698 16 26
5698 17 33
5699 38 1
5700 16 1
5701 3 1
5702 2 1
5702 4 1
5702 5 1
5702 11 1
5702 12 1
5702 19 1
5702 21 1
5702 34 1
5702 38 4
5703 29 1
5704 9 16
5704 10 22
5704 11 17
5704 18 1
5705 9 1
5705 34 1
5706 4 1
5706 5 6
5706 22 1
5706 38 16
5707 30 1
5708 4 1
5708 5 1
5708 21 1
5709 5 1
5710 5 1
5711 1 1
5711 2 19
5711 3 35
5711 34 39
5712 3 1
5712 10 1
5712 16 1
5712 18 2
5712 19 1
5712 21 1
5712 22 1
5712 24 1
5712 38 1
5713 8 1
5713 31 1
5714 38 1
5715 38 1
5716 23 1
5716 24 33
5716 29 9
5717 2 1
5718 2 1
5719 21 1
5720 29 4
5720 30 1
5721 19 1
5722 17 1
5723 5 1
5723 18 3
5723 19 6
5724 10 1
5725 4 4
5725 5 11
5725 15 1
5725 19 1
5725 29 8
5725 30 1
5725 38 23
5726 4 1
5726 5 3
5726 38 2
5727 15 1
5727 29 14
5728 18 1
5729 4 1
5730 29 11
5730 30 2
5730 31 2
5731 4 9
5731 5 29
5731 29 1
5731 38 39
5732 5 1
5733 24 4
5733 31 1
5733 34 1
5734 19 1
5735 2 1
5735 3 1
5735 12 1
5736 34 1
5737 34 1
5738 2 1
5739 1 1
5739 2 4
5739 3 10
5739 16 1
5739 29 1
5739 34 11
5740 18 6
5740 19 11
5740 20 7
5741 28 1
5742 3 1
5743 17 1
5743 18 1
5744 22 1
5745 15 1
5746 2 2
5746 34 4
5747 22 1
5747 29 20
5747 30 3
5748 1 1
5748 2 19
5748 3 25
5748 29 8
5748 34 39
5749 5 4
5749 9 1
5749 38 6
5750 29 1
5751 18 3
5751 19 9
5751 20 3
5753 11 1
5754 34 1
5755 24 8
5756 19 1
5757 21 1
5758 28 4
5759 31 3
5760 22 1
5761 9 1
5762 30 1
5763 2 5
5763 3 1
5763 16 1
5763 34 6
5764 19 1
5765 12 1
5766 9 3
5766 10 2
5766 34 1
5767 3 1
5767 18 14
5767 19 27
5767 20 3
5767 38 1
5768 2 1
5768 24 1
5769 24 1
5770 3 1
5770 11 1
5770 18 1
5770 21 1
5770 22 2
5770 24 1
5770 29 2
5770 31 1
5770 34 1
5770 38 3
5771 1 1
5771 2 1
5771 3 3
5771 15 1
5771 20 1
5771 29 1
5771 34 3
5771 38 1
5772 5 1
5773 34 1
5774 3 2
5774 24 12
5775 24 1
5776 21 1
5776 24 4
5777 5 1
5778 26 1
5779 5 6
5779 34 1
5779 38 7
5780 22 2
5781 5 1
5782 8 1
5783 18 3
5783 19 6
5784 5 1
5785 18 1
5785 24 1
5785 29 11
5785 30 1
5786 10 1
5786 11 1
5786 29 4
5786 34 1
5786 38 3
5787 3 1
5787 38 1
5788 2 2
5788 3 1
5788 15 1
5788 21 1
5788 24 1
5789 34 1
5790 3 1
5791 4 3
5791 5 23
5791 34 1
5791 38 21
5792 3 1
5793 5 1
5793 7 1
5794 29 3
5794 30 1
5795 9 12
5795 10 17
5795 11 8
5795 38 2
5796 19 1
5797 34 2
5798 2 2
5798 17 1
5798 19 1
5798 20 1
5798 21 1
5798 24 1
5798 29 1
5798 38 1
5799 12 10
5799 14 4
5799 24 7
5799 28 5
5800 24 9
5801 31 6
5802 34 1
5803 3 1
5804 29 10
5804 30 1
5804 34 1
5804 38 1
5805 8 1
5806 15 1
5806 19 1
5806 34 1
5807 29 1
5808 31 4
5809 34 1
5810 18 30
5810 19 35
5810 20 8
5811 5 1
5812 38 1
5813 31 1
5814 34 1
5815 4 1
5816 4 6
5816 5 22
5816 21 4
5816 22 1
5816 38 16
5817 38 1
5818 22 1
5819 19 1
5820 21 12
5820 22 9
5821 12 1
5822 29 1
5823 3 1
5823 20 1
5824 29 1
5825 1 1
5825 2 1
5825 3 1
5825 8 1
5825 18 1
5825 19 1
5825 22 1
5825 34 2
5826 21 1
5826 28 1
5827 12 1
5828 2 7
5828 3 31
5828 34 58
5829 3 1
5829 38 1
5830 2 6
5830 3 5
5830 31 1
5830 34 12
5831 18 14
5831 19 20
5831 20 15
5832 29 1
5833 38 1
5834 20 1
5835 3 1
5836 34 1
5837 19 1
5837 34 1
5838 3 1
5838 12 7
5838 14 3
5839 31 1
5840 29 19
5840 30 1
5841 15 2
5841 16 1
5842 38 1
5843 26 1
5844 24 1
5845 2 1
5846 31 1
5847 38 1
5848 3 1
5849 18 7
5849 19 11
5849 20 7
5850 38 1
5851 31 1
5852 15 7
5852 16 9
5852 17 4
5853 16 1
5853 18 1
5853 21 1
5853 22 2
5853 38 1
5854 5 4
5854 14 1
5854 34 1
5854 38 3
5855 14 1
5856 5 1
5856 38 1
5857 31 2
5858 9 1
5858 10 1
5859 2 2
5859 3 6
5859 7 1
5859 34 6
5860 29 1
5861 5 1
5862 2 1
5863 7 1
5864 19 2
5865 28 2
5866 24 1
5866 29 6
5866 30 1
5867 18 2
5867 19 1
5867 20 1
5867 38 1
5868 3 1
5868 4 2
5868 5 9
5868 28 1
5868 29 1
5868 38 8
5869 9 1
5869 19 1
5870 3 1
5871 28 7
5871 34 1
5872 29 1
5873 34 1
5874 24 1
5874 29 1
5875 29 1
5876 9 7
5876 10 14
5876 11 13
5877 9 10
5877 10 19
5877 11 11
5878 21 1
5879 29 7
5879 30 1
5880 5 1
5881 19 1
5882 9 5
5882 10 12
5882 11 4
5883 5 1
5884 2 1
5885 20 1
5886 31 2
5886 34 1
5887 19 1
5888 22 1
5888 24 20
5888 31 5
5889 9 1
5889 11 1
5890 34 1
5891 28 2
5892 2 1
5893 29 16
5893 30 1
5893 34 1
5894 2 8
5894 3 19
5894 34 24
5895 21 1
5896 7 1
5896 8 3
5897 28 3
5898 5 1
5899 3 2
5900 31 7
5901 31 1
5902 34 1
5903 38 1
5904 8 1
5904 21 18
5904 22 17
5905 18 13
5905 19 22
5905 20 5
5906 29 1
5907 2 5
5907 3 12
5907 8 1
5907 34 11
5908 19 1
5909 12 5
5909 14 2
5910 38 1
5911 4 12
5911 5 63
5911 38 84
5912 12 1
5912 18 1
5912 29 21
5912 30 2
5913 27 1
5913 28 2
5914 3 1
5914 15 6
5914 16 1
5914 17 1
5914 18 15
5914 19 18
5914 20 2
5915 18 1
5915 28 3
5916 3 1
5917 5 1
5917 29 17
5917 30 1
5918 2 9
5918 3 3
5918 24 1
5918 34 14
5919 5 3
5919 34 1
5920 2 2
5920 19 2
5920 26 2
5921 3 1
5922 26 1
5923 34 1
5924 18 9
5924 19 8
5924 20 1
5924 38 2
5925 23 1
5925 24 13
5926 7 6
5926 8 17
5926 18 1
5926 20 1
5927 2 1
5927 3 5
5927 34 10
5928 19 1
5928 29 9
5928 30 1
5929 38 1
5930 21 1
5931 2 1
5931 34 2
5932 19 1
5932 27 1
5932 29 27
5932 30 3
5933 24 3
5933 34 1
5934 5 1
5935 38 1
5936 4 1
5937 12 1
5937 14 1
5938 12 10
5938 13 1
5938 14 4
5938 19 1
5939 24 1
5940 12 4
5940 14 1
5941 29 7
5942 18 15
5942 19 24
5942 20 8
5943 23 1
5943 24 11
5944 19 1
5944 29 1
5945 24 1
5946 24 1
5946 38 1
5947 5 1
5948 2 9
5948 3 11
5948 34 20
5949 5 1
5950 19 1
5951 2 1
5951 4 1
5951 5 1
5951 24 1
5951 26 8
5951 34 1
5952 28 1
5953 4 5
5953 5 11
5953 38 12
5954 2 1
5954 38 1
5955 18 1
5956 4 2
5956 5 21
5956 38 13
5957 38 1
5958 5 1
5958 34 1
5959 2 1
5959 28 1
5960 14 1
5961 2 3
5961 3 6
5961 34 16
5962 11 1
5963 24 1
5964 12 20
5964 14 12
5964 15 1
5964 34 2
5965 2 4
5965 3 5
5965 18 1
5965 34 4
5966 9 3
5966 10 13
5966 11 8
5966 24 2
5966 31 1
5966 34 1
5967 4 1
5967 5 2
5967 38 7
5968 12 1
5969 3 1
5969 9 1
5969 12 1
5969 18 1
5969 20 1
5970 29 26
5970 30 1
5971 4 1
5971 5 4
5971 38 4
5972 22 1
5973 3 1
5973 5 1
5973 18 2
5973 19 1
5973 22 1
5973 31 1
5973 34 1
5974 34 1
5975 21 1
5976 19 1
5977 38 1
5978 24 19
5978 28 1
5978 29 1
5979 38 1
5980 7 1
5981 11 1
5982 29 8
5983 3 1
5983 29 6
5983 30 1
5984 10 1
5984 18 1
5984 28 2
5984 38 1
5985 21 1
5985 31 4
5985 34 1
5986 5 1
5987 3 2
5987 29 1
5988 18 1
5988 20 1
5989 4 1
5989 5 5
5989 38 8
5990 8 1
5991 31 1
5992 19 1
5993 21 1
5994 5 1
5995 4 8
5995 5 38
5995 38 48
5996 12 1
5997 5 1
5998 2 1
5998 24 1
5998 34 1
5999 38 1
6000 38 1
6001 9 1
6001 10 4
6001 11 2
6002 34 1
6003 2 2
6004 2 1
6004 10 2
6005 34 1
6006 4 1
6007 12 27
6007 13 2
6007 14 13
6008 2 1
6008 3 1
6009 19 1
6010 2 5
6010 3 3
6010 22 1
6010 34 8
6011 3 1
6012 24 1
6013 24 1
6013 31 1
6014 38 1
6015 3 1
6015 19 1
6015 38 1
6016 3 1
6017 18 1
6017 27 1
6017 28 1
6018 10 2
6018 11 2
6018 34 1
6019 18 1
6019 19 2
6020 3 1
6020 21 1
6021 2 1
6022 11 1
6023 2 6
6023 3 4
6023 18 1
6023 34 18
6024 38 1
6025 2 1
6025 5 1
6025 18 1
6025 19 1
6025 20 1
6025 30 1
6025 38 1
6026 5 15
6026 21 1
6026 24 6
6026 38 22
6027 38 1
6028 15 3
6028 34 2
6028 38 1
6029 4 1
6029 9 3
6029 10 7
6029 11 4
6029 38 4
6030 5 1
6031 31 1
6032 8 1
6033 29 1
6034 3 1
6034 5 1
6034 15 1
6034 19 1
6034 21 1
6034 22 1
6034 29 1
6034 34 1
6035 29 1
6036 15 1
6037 16 1
6037 24 1
6038 2 17
6038 3 17
6038 34 32
6039 9 1
6040 24 8
6041 2 1
6042 21 1
6043 18 1
6044 24 7
6045 11 2
6045 24 8
6046 18 1
6046 34 1
6047 38 1
6048 9 2
6048 10 16
6048 11 15
6048 21 9
6048 22 9
6048 29 1
6049 5 1
6049 9 2
6049 10 1
6049 11 1
6049 15 1
6049 16 1
6049 38 3
6050 22 1
6051 3 1
6051 24 6
6052 8 1
6053 5 1
6054 19 1
6054 31 6
6055 20 1
6056 3 3
6056 34 11
6057 3 2
6057 34 3
6058 2 11
6058 3 10
6058 10 1
6058 34 11
6059 8 1
6060 29 1
6061 3 2
6061 5 1
6061 21 1
6061 34 1
6062 24 2
6062 38 1
6063 4 9
6063 5 26
6063 9 1
6063 19 1
6063 38 31
6064 19 1
6064 28 8
6065 7 1
6065 16 1
6066 31 1
6067 9 1
6067 21 1
6068 5 1
6068 24 2
6069 24 2
6070 23 1
6070 24 14
6071 12 1
6071 21 17
6071 22 17
6072 1 1
6072 8 2
6072 12 13
6072 14 1
6072 22 1
6072 24 1
6072 29 2
6073 5 1
6074 29 1
6075 24 1
6076 15 1
6077 3 2
6077 5 1
6077 7 1
6077 10 1
6077 12 2
6077 17 1
6077 24 1
6077 29 1
6077 34 2
6077 38 1
6078 24 7
6078 31 1
6079 2 7
6079 3 7
6079 34 8
6080 34 1
6081 17 1
6082 3 1
6082 5 1
6082 18 1
6082 34 1
6083 18 15
6083 19 13
6083 20 3
6083 29 1
6084 1 1
6084 2 4
6084 3 12
6084 34 15
6085 2 1
6085 19 1
6085 22 1
6086 2 1
6087 3 1
6087 31 3
6088 2 13
6088 3 22
6088 34 36
6089 5 1
6090 19 1
6091 38 1
6092 24 2
6093 24 19
6094 12 29
6094 13 2
6094 14 20
6095 28 2
6095 31 1
6096 38 1
6097 5 1
6098 38 1
6099 1 1
6099 10 1
6100 3 1
6101 20 1
6101 21 1
6102 12 1
6103 18 4
6103 19 14
6103 20 1
6103 24 1
6104 3 3
6104 29 1
6104 34 1
6105 4 10
6105 5 55
6105 38 71
6106 19 1
6106 24 21
6106 29 12
6106 30 1
6107 7 11
6107 8 9
6108 5 1
6108 18 1
6109 3 1
6109 9 1
6109 20 1
6110 19 1
6111 2 4
6111 3 3
6111 26 1
6111 34 5
6112 24 14
6113 2 7
6113 3 8
6113 24 8
6113 26 3
6113 34 5
6114 19 1
6115 3 1
6116 34 2
6117 7 10
6117 8 19
6118 4 6
6118 5 24
6118 29 1
6118 38 29
6119 22 1
6120 3 1
6120 34 1
6120 38 2
6121 5 1
6122 5 1
6122 28 3
6123 15 1
6124 24 14
6125 15 18
6125 16 11
6125 17 19
6126 4 3
6126 5 11
6126 38 22
6127 15 1
6128 10 2
6128 21 1
6128 31 1
6129 3 1
6129 29 12
6129 30 2
6130 2 2
6130 3 3
6130 26 4
6130 31 6
6130 34 3
6131 2 1
6131 18 1
6131 24 28
6132 3 1
6132 29 1
6133 5 1
6134 12 1
6135 3 1
6135 9 9
6135 10 16
6135 11 14
6135 18 1
6135 22 4
6136 29 1
6137 24 1
6138 18 2
6138 19 3
6138 21 1
6139 34 1
6140 1 1
6140 2 8
6140 3 8
6140 5 1
6140 34 14
6141 5 1
6142 5 1
6142 21 4
6142 22 16
6143 31 1
6144 15 1
6145 34 1
6146 5 1
6147 3 1
6148 4 11
6148 5 39
6148 8 1
6148 34 1
6148 38 61
6149 28 1
6149 29 1
6150 38 1
6151 5 1
6151 14 2
6151 38 4
6152 12 1
6153 3 1
6153 4 1
6153 34 1
6154 28 4
6154 31 1
6155 5 1
6156 31 1
6157 18 1
6158 12 1
6159 3 1
6160 24 3
6161 24 1
6162 18 1
6163 2 2
6163 3 2
6163 5 2
6163 34 6
6164 24 1
6164 26 2
6165 8 1
6165 12 1
6165 38 1
6166 9 1
6166 10 4
6166 11 2
6166 18 1
6166 29 1
6167 5 1
6167 19 1
6168 19 1
6169 34 1
6169 38 1
6170 3 1
6170 22 2
6171 5 1
6171 12 1
6171 20 1
6171 23 1
6171 38 1
6172 24 9
6173 18 1
6174 34 1
6175 38 1
6176 9 1
6176 34 1
6177 29 6
6178 2 3
6178 19 1
6178 22 1
6178 24 1
6178 31 1
6178 34 2
6179 29 1
6180 7 4
6180 8 10
6181 19 1
6182 1 1
6182 2 21
6182 3 34
6182 29 5
6182 30 1
6182 34 50
6183 19 2
6184 22 1
6185 29 11
6185 30 2
6186 34 1
6187 21 1
6188 3 1
6188 24 8
6188 34 3
6189 5 1
6190 2 2
6190 3 3
6190 29 21
6190 34 4
6191 24 9
6192 9 1
6192 10 4
6192 21 1
6192 29 1
6193 29 7
6194 12 4
6194 13 1
6194 14 5
6194 29 1
6195 2 1
6196 5 3
6197 38 1
6198 8 1
6199 29 1
6200 5 1
6200 7 1
6200 8 2
6201 9 3
6201 10 21
6201 11 11
6202 2 1
6202 3 1
6203 18 1
6204 31 1
6205 1 1
6205 2 18
6205 3 48
6205 19 1
6205 34 67
6206 21 1
6207 21 1
6208 10 1
6208 28 2
6209 38 1
6210 20 1
6211 24 1
6212 3 1
6213 3 1
6213 31 1
6214 4 1
6215 20 1
6216 4 2
6216 5 12
6216 38 15
6217 31 1
6218 3 1
6219 3 2
6219 5 2
6219 11 2
6219 17 1
6219 19 1
6219 22 1
6219 24 1
6219 28 1
6219 29 1
6219 34 2
6219 38 2
6220 15 1
6220 16 1
6220 17 1
6221 4 2
6221 5 18
6221 34 2
6221 38 9
6222 29 11
6222 30 1
6223 38 1
6224 18 2
6224 19 4
6224 20 2
6225 21 14
6225 22 7
6226 2 2
6226 3 1
6226 38 1
6227 16 1
6228 2 1
6228 29 1
6229 10 1
6229 31 5
6229 38 1
6230 29 15
6230 30 3
6231 5 1
6231 21 1
6232 34 1
6233 3 1
6234 3 1
6235 2 17
6235 3 98
6235 34 156
6236 15 1
6236 29 1
6237 10 1
6238 34 1
6239 21 1
6240 29 3
6240 38 1
6241 2 7
6241 3 6
6241 34 7
6242 3 1
6243 12 1
6244 3 1
6245 5 1
6246 21 1
6246 24 1
6247 15 22
6247 16 12
6247 17 23
6248 1 2
6248 2 11
6248 3 16
6248 34 24
6249 7 1
6249 9 1
6249 24 1
6249 38 1
6250 29 6
6251 14 1
6252 3 2
6252 34 2
6253 31 7
6253 34 1
6254 38 1
6255 29 11
6255 30 1
6256 15 2
6256 17 1
6257 34 1
6258 34 1
6259 12 1
6260 15 1
6260 17 1
6261 29 1
6262 24 1
6263 24 1
6264 16 1
6266 2 1
6266 15 1
6266 28 3
6267 4 8
6267 5 26
6267 38 29
6268 18 1
6268 34 1
6269 3 1
6269 11 1
6270 24 1
6271 5 1
6271 7 4
6271 8 4
6272 5 1
6272 18 1
6272 29 1
6272 38 1
6273 3 1
6274 38 1
6275 3 1
6275 21 21
6275 22 8
6276 3 1
6276 24 2
6277 38 1
6278 14 1
6279 34 1
6281 8 1
6282 12 19
6282 13 1
6282 14 18
6282 24 1
6283 19 1
6283 29 1
6284 18 68
6284 19 70
6284 20 10
6285 7 1
6286 18 1
6286 34 1
6287 31 1
6288 13 1
6289 10 1
6289 24 1
6290 21 5
6291 29 1
6292 7 19
6292 8 31
6292 21 1
6292 38 1
6293 5 1
6294 12 1
6295 2 14
6295 3 47
6295 4 1
6295 34 54
6296 3 1
6296 5 1
6296 11 1
6296 17 1
6296 21 1
6296 24 1
6296 29 1
6296 31 2
6296 38 1
6297 29 16
6297 30 1
6297 34 1
6298 11 1
6298 21 1
6298 22 2
6298 31 1
6299 28 1
6300 29 1
6300 38 1
6301 34 1
6302 11 1
6303 3 1
6303 5 1
6303 10 1
6303 21 1
6303 24 12
6304 3 3
6304 5 1
6304 9 1
6304 11 1
6304 18 1
6304 21 1
6304 24 1
6304 31 1
6304 34 2
6305 15 1
6306 3 1
6307 3 2
6308 21 24
6308 22 15
6309 24 20
6310 3 1
6311 2 1
6312 34 1
6313 29 7
6313 34 1
6314 12 16
6314 14 12
6315 24 3
6316 19 1
6316 24 1
6316 29 6
6316 30 1
6316 34 1
6317 24 20
6318 38 1
6319 31 1
6320 29 1
6321 19 1
6322 3 1
6322 29 15
6323 21 1
6324 38 1
6325 4 8
6325 5 24
6325 38 29
6326 18 1
6326 19 7
6326 20 1
6327 12 25
6327 14 18
6328 12 1
6329 8 1
6329 29 8
6329 30 1
6329 34 2
6329 38 1
6330 9 1
6330 10 3
6330 11 3
6331 19 1
6332 1 1
6332 2 21
6332 3 42
6332 24 3
6332 34 64
6333 5 1
6333 11 1
6333 18 1
6333 19 5
6333 20 1
6333 24 1
6333 28 2
6333 38 1
6334 34 1
6335 34 1
6336 21 1
6337 1 2
6337 2 14
6337 3 30
6337 21 1
6337 34 41
6338 2 1
6338 18 1
6338 24 1
6339 21 1
6339 22 3
6340 21 2
6340 22 1
6341 34 1
6342 18 23
6342 19 30
6342 20 13
6343 21 10
6343 22 10
6344 5 1
6344 8 1
6344 18 1
6344 19 1
6344 21 2
6344 24 2
6344 29 3
6344 30 1
6344 31 1
6344 34 1
6344 38 1
6345 26 1
6345 29 16
6345 30 1
6346 5 1
6347 7 5
6347 8 6
6347 22 1
6348 31 9
6349 18 3
6349 19 9
6349 20 3
6350 9 11
6350 10 23
6350 11 15
6351 2 1
6352 22 1
6353 3 1
6353 31 19
6354 14 1
6354 18 1
6355 18 1
6356 24 1
6357 8 1
6357 28 5
6357 34 1
6358 5 1
6359 24 2
6360 4 4
6360 5 6
6360 31 1
6360 34 1
6360 38 6
6361 38 1
6362 8 1
6362 14 1
6362 15 1
6362 24 28
6363 28 1
6363 29 1
6364 3 1
6365 31 1
6366 29 1
6366 34 1
6367 17 1
6368 30 1
6368 31 1
6369 15 4
6370 18 1
6371 15 1
6372 7 1
6373 38 1
6374 2 1
6375 12 5
6375 14 11
6376 15 6
6376 16 6
6376 17 4
6377 3 1
6377 9 1
6377 10 1
6377 11 1
6378 29 12
6378 38 1
6379 28 1
6380 34 1
6381 29 1
6382 23 1
6382 24 18
6383 15 1
6384 5 3
6385 2 6
6385 3 25
6385 34 26
6386 22 1
6387 5 1
6387 24 1
6388 2 7
6388 3 21
6388 34 30
6389 2 13
6389 3 20
6389 34 29
6390 2 1
6391 3 1
6391 29 1
6392 8 1
6392 29 1
6393 21 1
6393 28 7
6394 9 1
6394 21 1
6395 2 1
6395 19 1
6395 29 2
6396 14 1
6397 29 31
6397 30 5
6398 7 33
6398 8 44
6399 29 1
6400 2 1
6400 3 1
6400 34 1
6401 5 1
6402 31 1
6403 8 1
6404 4 2
6404 5 8
6404 8 5
6404 34 1
6404 38 5
6405 29 1
6406 19 1
6407 7 1
6407 12 1
6407 20 1
6408 29 5
6408 34 1
6409 21 2
6409 22 1
6410 29 1
6411 38 1
6412 34 1
6413 3 1
6413 28 5
6414 34 1
6415 31 10
6416 28 3
6417 29 8
6418 29 4
6419 2 1
6419 16 2
6419 18 1
6419 21 3
6419 31 1
6419 38 1
6420 24 1
6421 12 2
6421 24 3
6421 26 1
6421 29 12
6421 30 1
6422 11 1
6423 7 7
6423 8 7
6424 19 1
6425 31 2
6426 5 1
6426 24 22
6427 19 1
6428 10 1
6429 22 1
6430 11 1
6431 1 1
6432 28 1
6433 29 1
6434 28 1
6435 9 9
6435 10 15
6435 11 13
6436 19 2
6436 24 32
6436 34 1
6437 3 1
6437 10 1
6437 18 2
6437 24 2
6437 29 1
6437 30 1
6437 31 1
6438 4 1
6439 9 2
6439 10 5
6439 11 9
6440 2 1
6441 5 1
6441 38 1
6442 10 1
6443 2 2
6443 9 1
6443 10 1
6443 11 2
6443 19 1
6444 26 3
6445 8 1
6446 2 1
6446 9 1
6446 34 4
6447 29 12
6447 38 1
6448 34 1
6449 31 11
6449 33 1
6450 34 1
6451 15 16
6451 16 16
6451 17 12
6452 5 1
6453 18 1
6454 19 1
6455 24 17
6456 2 1
6457 24 1
6458 5 2
6458 38 1
6459 10 1
6459 22 1
6459 34 1
6460 3 1
6460 21 1
6461 8 3
6462 20 2
6463 12 1
6464 7 9
6464 8 21
6464 21 8
6464 22 7
6465 14 1
6465 28 8
6466 21 1
6467 7 1
6468 22 1
6468 38 1
6469 31 8
6470 10 1
6471 23 1
6471 24 11
6472 24 5
6473 9 1
6474 19 1
6475 2 1
6476 2 2
6476 3 2
6476 4 2
6476 12 1
6476 18 1
6476 19 1
6476 24 2
6476 29 2
6476 30 2
6476 34 3
6477 5 1
6478 18 1
6478 34 1
6479 24 27
6480 34 1
6481 5 1
6481 11 1
6481 12 1
6481 18 1
6481 29 1
6481 34 1
6481 38 1
6482 28 2
6483 2 10
6483 3 31
6483 34 36
6484 18 2
6484 19 4
6485 5 1
6486 21 1
6487 3 1
6488 5 1
6488 24 7
6488 28 1
6489 29 15
6490 5 1
6490 12 1
6491 12 24
6491 14 23
6492 3 1
6492 12 1
6492 14 1
6492 24 1
6492 38 1
6493 5 1
6493 9 19
6493 10 30
6493 11 21
6494 23 1
6494 24 19
6495 28 1
6496 24 1
6497 4 2
6497 5 15
6497 7 1
6497 38 16
6498 34 1
6499 24 2
6500 22 1
6501 29 1
6502 12 1
6502 31 8
6503 7 2
6503 8 5
6504 2 1
6505 7 4
6505 8 20
6506 34 1
6507 5 1
6507 18 1
6507 29 2
6507 34 1
6508 24 1
6509 31 2
6510 15 1
6511 21 1
6512 29 7
6513 3 1
6513 11 1
6513 19 1
6513 29 1
6513 34 1
6514 3 1
6515 15 4
6515 16 1
6515 17 4
6515 18 17
6515 19 20
6515 20 10
6515 24 1
6516 38 1
6517 3 1
6518 5 8
6518 38 8
6519 9 1
6520 24 14
6521 29 2
6522 4 1
6522 10 5
6522 11 4
6523 28 4
6524 5 1
6525 19 1
6525 29 1
6526 28 3
6527 5 1
6528 3 1
6529 29 1
6530 19 1
6531 12 5
6531 14 5
6531 34 1
6531 38 1
6532 2 1
6532 4 1
6532 9 1
6532 19 1
6532 22 1
6533 24 1
6534 31 3
6535 2 19
6535 3 25
6535 34 42
6536 4 1
6536 5 11
6536 38 29
6537 12 1
6537 21 1
6537 22 4
6538 5 1
6539 3 1
6540 7 3
6540 8 5
6541 38 2
6542 3 1
6543 3 1
6544 2 4
6544 3 5
6544 18 1
6544 22 1
6544 26 1
6544 34 16
6545 3 1
6546 12 1
6547 8 1
6548 38 1
6549 2 1
6549 4 1
6549 29 1
6549 38 1
6550 21 1
6551 12 1
6552 19 1
6553 5 1
6553 9 1
6553 20 1
6553 26 1
6553 34 1
6554 19 1
6555 2 1
6555 12 1
6555 38 1
6556 10 1
6557 12 5
6557 14 2
6558 5 1
6558 31 8
6558 34 1
6559 3 1
6559 12 1
6559 14 1
6559 21 1
6560 2 4
6560 3 10
6560 34 7
6561 22 1
6562 3 1
6563 14 1
6564 3 1
6565 30 1
6566 21 1
6566 24 8
6567 24 1
6568 9 6
6568 10 12
6568 11 3
6569 4 2
6569 5 2
6569 12 1
6569 19 1
6569 38 4
6570 3 1
6570 12 5
6570 14 6
6571 2 1
6572 24 8
6573 24 1
6574 11 1
6574 22 1
6575 2 1
6575 5 3
6575 7 1
6575 9 1
6575 12 1
6575 17 1
6575 18 1
6575 19 1
6575 34 2
6575 38 2
6576 3 1
6576 5 1
6576 8 1
6576 12 4
6576 14 1
6576 22 1
6576 34 2
6577 24 15
6578 12 38
6578 14 26
6579 24 1
6580 28 3
6581 5 1
6582 38 2
6583 34 1
6583 38 1
6584 3 2
6584 4 1
6584 5 3
6584 8 3
6584 9 1
6584 11 1
6584 17 1
6584 18 1
6584 19 2
6584 24 1
6584 28 1
6584 38 2
6585 24 1
6586 26 1
6587 3 1
6588 3 1
6588 4 1
6588 38 1
6589 38 1
6590 2 1
6590 10 1
6590 22 1
6590 38 2
6591 18 1
6592 38 1
6593 14 1
6593 24 1
6593 26 2
6594 1 2
6594 2 26
6594 3 38
6594 14 1
6594 34 53
6595 4 1
6595 12 1
6595 17 1
6595 22 1
6595 34 1
6595 38 1
6596 2 1
6596 3 2
6597 18 1
6598 38 1
6599 38 1
6600 2 2
6600 34 1
6601 3 1
6601 8 1
6601 10 1
6601 34 3
6602 10 1
6603 5 3
6603 9 1
6603 10 3
6603 11 3
6603 21 1
6603 38 1
6604 38 1
6605 5 1
6606 4 2
6607 9 1
6608 18 3
6608 19 3
6608 20 2
6609 34 1
6610 29 1
6611 34 1
6612 3 1
6613 34 1
6614 20 1
6615 3 1
6616 18 1
6617 4 1
6617 38 3
6618 7 12
6618 8 25
6619 29 1
6620 1 3
6620 2 22
6620 3 24
6620 24 1
6620 34 34
6620 38 1
6621 29 5
6622 2 1
6622 3 1
6622 5 1
6622 12 1
6622 14 1
6622 18 1
6622 29 1
6622 34 1
6623 5 1
6624 3 1
6624 31 3
6625 24 11
6626 4 7
6626 5 35
6626 38 44
6627 31 2
6628 5 1
6628 8 1
6628 14 1
6628 31 2
6628 38 1
6629 31 1
6630 4 1
6631 12 1
6632 4 2
6632 5 21
6632 38 15
6633 19 1
6634 24 1
6635 38 1
6636 38 1
6637 5 1
6638 34 1
6639 24 1
6640 31 1
6641 1 1
6641 2 10
6641 3 31
6641 30 1
6641 34 32
6642 7 1
6642 15 1
6642 22 1
6643 2 4
6643 3 7
6643 19 1
6643 34 9
6644 14 1
6645 12 29
6645 13 1
6645 14 8
6645 24 2
6645 26 5
6646 9 11
6646 10 8
6646 11 11
6646 18 22
6646 19 26
6646 20 4
6647 24 1
6648 5 1
6648 12 1
6648 21 1
6648 22 1
6649 34 1
6650 26 1
6651 2 1
6651 20 1
6652 34 1
6653 2 1
6654 24 1
6655 2 2
6655 3 1
6655 5 1
6655 28 1
6655 34 6
6656 31 4
6657 18 1
6657 29 2
6658 18 1
6659 24 1
6660 3 1
6661 31 1
6662 2 7
6662 3 11
6662 5 1
6662 34 21
6663 34 1
6664 2 1
6664 8 1
6664 10 1
6664 12 1
6664 18 2
6664 24 2
6664 26 1
6664 29 2
6664 31 1
6664 34 1
6664 38 2
6665 18 1
6666 29 1
6667 18 1
6667 19 1
6668 16 1
6668 29 10
6669 29 1
6669 34 1
6670 3 3
6670 5 1
6670 34 3
6671 19 1
6672 4 11
6672 5 47
6672 38 79
6673 29 1
6674 15 1
6674 17 1
6675 8 1
6675 19 1
6675 20 1
6675 29 1
6675 38 1
6676 34 1
6677 10 1
6677 11 1
6677 18 1
6678 34 1
6679 2 1
6679 21 9
6679 22 3
6679 29 1
6680 22 1
6681 9 8
6681 10 12
6681 11 11
6681 38 1
6682 3 1
6683 3 1
6684 3 1
6684 15 1
6684 34 1
6685 2 1
6686 19 1
6686 29 16
6686 30 1
6687 21 6
6687 22 5
6688 24 1
6689 38 1
6690 18 51
6690 19 74
6690 20 25
6690 34 1
6691 11 1
6692 7 6
6692 8 9
6693 31 1
6694 26 1
6694 29 6
6694 30 2
6695 12 1
6695 34 1
6696 2 3
6696 3 16
6696 34 21
6697 19 1
6698 4 1
6699 4 4
6699 5 10
6699 11 4
6699 20 1
6699 38 24
6700 34 1
6701 8 1
6702 9 1
6702 18 2
6702 19 1
6702 38 2
6703 4 1
6703 5 4
6703 20 1
6703 38 3
6704 18 1
6705 12 1
6706 12 1
6706 20 1
6706 29 1
6707 29 38
6707 30 3
6708 16 5
6708 17 6
6709 5 1
6709 38 2
6710 3 1
6711 14 1
6712 24 1
6712 29 6
6713 19 1
6714 2 1
6715 2 10
6715 3 9
6715 34 12
6716 31 1
6717 38 1
6718 38 1
6719 38 1
6720 9 1
6721 9 1
6722 24 2
6723 4 1
6723 18 13
6723 19 16
6723 20 6
6724 8 1
6725 12 7
6725 14 9
6726 19 1
6727 29 11
6728 14 1
6728 21 1
6729 15 2
6729 17 7
6729 21 1
6730 4 1
6730 5 5
6730 16 1
6730 38 9
6731 15 2
6731 16 3
6731 17 2
6732 2 1
6733 11 1
6734 21 1
6735 1 1
6735 2 24
6735 3 23
6735 26 5
6735 31 8
6735 34 34
6736 3 1
6737 12 1
6738 18 6
6738 19 7
6738 20 5
6739 24 1
6740 12 4
6741 16 1
6742 2 2
6742 3 2
6742 4 1
6742 34 5
6743 34 1
6744 24 1
6744 28 3
6745 28 1
6746 31 1
6747 28 1
6748 5 1
6748 19 1
6749 21 1
6750 34 2
6750 38 1
6751 7 6
6751 8 7
6751 12 1
6752 31 1
6753 2 3
6754 25 2
6754 26 3
6755 15 1
6756 3 2
6757 19 1
6758 5 1
6759 21 1
6760 8 1
6761 15 1
6762 2 1
6762 4 1
6762 34 1
6763 19 1
6764 4 1
6765 19 1
6765 24 13
6766 24 16
6767 38 1
6768 11 1
6769 24 2
6770 9 21
6770 10 39
6770 11 33
6771 34 1
6772 3 1
6772 34 2
6773 1 1
6773 2 2
6773 3 9
6773 24 2
6773 34 9
6774 31 4
6775 24 1
6776 29 4
6776 30 1
6777 9 11
6777 10 11
6777 11 8
6777 38 1
6778 29 6
6779 29 1
6780 11 1
6780 15 14
6780 16 11
6780 17 6
6781 19 1
6782 12 1
6783 5 1
6784 16 1
6785 5 1
6785 29 5
6786 3 1
6786 17 1
6786 29 1
6787 17 1
6787 21 1
6787 26 1
6787 34 1
6788 24 1
6789 12 1
6790 29 1
6791 18 1
6791 21 60
6791 22 51
6791 29 1
6791 31 1
6792 38 2
6793 7 1
6794 3 1
6795 3 1
6795 18 1
6795 31 1
6795 38 1
6796 10 1
6797 1 3
6797 2 18
6797 3 14
6797 18 1
6797 24 1
6797 34 21
6798 11 1
6799 28 1
6800 14 1
6801 18 1
6802 2 1
6803 5 1
6804 31 1
6805 19 1
6806 15 1
6806 18 15
6806 19 18
6806 20 5
6806 22 1
6807 38 1
6808 4 1
6808 24 8
6809 4 2
6809 5 9
6809 38 12
6810 5 1
6811 5 1
6811 18 1
6812 15 9
6812 16 3
6812 17 4
6813 24 2
6813 29 4
6813 38 1
6814 4 1
6814 5 3
6814 38 4
6815 18 1
6815 19 1
6815 28 4
6815 34 1
6816 34 2
6817 12 1
6818 5 1
6818 22 1
6819 21 1
6820 12 1
6821 3 1
6821 5 1
6821 12 13
6821 14 5
6821 22 1
6822 2 1
6822 4 10
6822 5 36
6822 38 52
6823 34 1
6824 38 1
6825 11 1
6826 18 1
6827 21 1
6827 38 1
6828 28 2
6828 31 1
6829 21 1
6830 34 1
6831 2 11
6831 3 18
6831 20 1
6831 34 27
6832 12 2
6832 28 1
6833 24 1
6833 38 1
6834 24 4
6834 29 7
6835 3 1
6835 8 1
6836 3 1
6837 2 1
6837 9 32
6837 10 54
6837 11 29
6837 28 1
6838 18 19
6838 19 25
6838 20 12
6838 24 1
6838 34 1
6839 3 1
6839 5 1
6840 12 15
6840 14 10
6841 8 1
6842 29 1
6843 21 1
6844 18 1
6845 4 1
6846 31 15
6847 24 1
6847 28 1
6848 2 1
6849 2 1
6849 3 4
6849 8 1
6849 20 1
6849 21 1
6849 24 1
6849 28 1
6849 34 1
6849 38 2
6850 29 25
6850 30 3
6851 7 11
6851 8 34
6852 5 6
6852 38 10
6853 3 1
6854 3 1
6854 28 1
6854 29 8
6854 30 1
6854 34 1
6855 3 1
6856 11 1
6857 15 1
6857 16 1
6858 14 1
6858 15 1
6858 16 1
6858 24 1
6859 24 1
6860 2 2
6860 3 5
6860 24 7
6860 34 10
6861 38 1
6862 5 1
6863 34 1
6864 4 13
6864 5 45
6864 38 53
6865 1 1
6866 5 1
6866 24 2
6867 23 1
6867 24 7
6868 4 2
6868 5 20
6868 14 1
6868 16 1
6868 38 27
6869 19 4
6869 20 1
6870 31 1
6871 2 10
6871 3 11
6871 24 13
6871 29 1
6871 34 17
6872 24 1
6873 24 1
6874 1 2
6874 2 7
6874 3 21
6874 34 29
6875 15 21
6875 16 3
6875 17 8
6875 21 1
6875 22 1
6876 18 1
6877 21 1
6878 29 30
6878 30 2
6879 34 1
6880 38 1
6881 8 1
6881 18 9
6881 19 27
6881 20 15
6882 29 23
6882 34 1
6883 5 1
6883 29 1
6884 29 23
6884 30 1
6885 31 1
6886 3 1
6886 28 4
6886 34 1
6887 12 1
6888 2 1
6889 1 1
6889 2 13
6889 3 12
6889 34 12
6889 38 2
6890 2 1
6891 21 9
6891 22 6
6892 16 1
6893 10 1
6894 3 1
6895 34 3
6896 12 5
6896 14 3
6896 34 1
6897 5 1
6897 24 1
6898 18 1
6899 24 1
6900 24 2
6900 29 2
6900 34 1
6901 18 1
6902 18 1
6903 31 5
6904 29 10
6904 31 2
6905 5 9
6905 16 1
6905 24 13
6905 38 18
6906 38 1
6907 18 1
6908 21 7
6908 22 7
6908 28 1
6909 22 1
6909 29 1
6909 30 1
6909 34 1
6909 38 1
6910 1 3
6910 2 22
6910 3 41
6910 34 48
6911 4 11
6911 5 29
6911 38 37
6912 2 1
6912 3 1
6912 5 2
6912 7 2
6912 11 1
6912 14 1
6912 19 1
6912 20 2
6912 24 1
6912 28 1
6912 29 1
6912 34 1
6912 38 2
6913 24 3
6914 31 3
6915 34 1
6916 5 1
6916 12 1
6916 15 1
6916 19 1
6916 21 1
6916 24 20
6916 31 2
6916 38 1
6917 5 1
6917 9 1
6918 24 4
6919 29 1
6920 4 2
6920 5 9
6920 38 7
6921 18 41
6921 19 68
6921 20 23
6922 5 1
6923 10 1
6923 28 6
6923 34 1
6924 16 1
6925 9 5
6925 10 3
6925 11 3
6926 10 1
6927 3 1
6928 29 11
6929 12 2
6929 16 1
6929 28 1
6930 5 1
6931 3 1
6932 31 13
6933 2 1
6934 2 7
6934 3 17
6934 34 35
6935 9 14
6935 10 34
6935 11 21
6935 38 1
6936 34 1
6937 12 2
6937 14 1
6937 21 1
6938 24 1
6939 5 1
6940 11 1
6941 34 1
6942 2 1
6942 14 1
6942 21 1
6942 24 1
6942 31 1
6942 34 2
6943 18 1
6943 19 2
6944 21 20
6944 22 11
6945 4 13
6945 5 26
6945 38 31
6946 12 22
6946 14 11
6946 34 1
6947 38 1
6948 5 2
6949 3 1
6949 18 2
6949 24 1
6949 38 1
6950 19 6
6950 20 1
6951 4 1
6951 12 1
6952 21 1
6953 5 1
6954 15 1
6955 18 1
6956 17 1
6957 4 1
6957 22 1
6957 38 1
6958 3 1
6958 12 22
6958 14 21
6958 29 1
6959 2 1
6959 24 1
6960 15 1
6960 17 1
6960 18 3
6960 19 1
6961 10 1
6962 24 16
6962 38 1
6963 12 1
6963 18 9
6964 18 1
6964 24 1
6964 38 1
6965 24 11
6965 29 5
6965 30 2
6966 7 1
6967 7 2
6967 8 1
6968 22 1
6969 19 2
6970 9 1
6970 10 2
6970 11 2
6971 4 2
6972 2 8
6972 3 10
6972 34 11
6973 11 1
6973 34 1
6974 22 1
6974 31 5
6975 23 1
6975 24 7
6976 34 1
6977 3 1
6977 17 1
6977 19 1
6977 24 2
6977 31 1
6977 38 3
6978 21 1
6979 38 1
6980 2 1
6980 18 1
6980 19 1
6980 29 5
6981 19 1
6981 34 1
6982 34 1
6983 29 19
6984 3 1
6984 14 1
6984 22 1
6984 34 3
6985 34 1
6986 24 34
6986 34 2
6987 12 1
6988 18 1
6988 29 29
6988 30 1
6989 17 1
6990 17 1
6991 24 1
6992 7 1
6992 24 4
6993 7 1
6993 8 6
6993 12 6
6993 14 2
6994 38 1
6995 24 1
6996 3 3
6996 18 1
6996 19 1
6996 20 1
6996 22 1
6996 24 2
6996 34 1
6997 34 1
6998 2 18
6998 3 33
6998 34 45
6998 38 1
6999 22 1
7000 29 9
7000 30 1
7001 7 1
7001 8 1
7001 9 2
7001 10 6
7001 11 1
7002 23 1
7002 24 23
7002 34 1
7003 34 1
7004 34 1
7005 9 1
7005 21 1
7005 29 1
7005 38 1
7006 31 5
7007 21 3
7007 22 1
7008 4 1
7008 5 6
7008 38 3
7009 19 1
7010 3 1
7011 7 1
7011 9 1
7011 34 1
7013 34 1
7014 3 1
7014 26 4
7015 5 1
7015 29 41
7015 30 4
7015 38 1
7016 4 10
7016 5 40
7016 24 18
7016 31 19
7016 38 46
7017 38 1
7018 12 6
7018 13 1
7018 14 1
7019 31 1
7020 7 1
7021 12 1
7021 38 1
7022 5 1
7023 9 1
7023 28 4
7024 3 1
7024 9 1
7025 2 20
7025 3 29
7025 34 31
7026 19 1
7027 29 1
7027 31 1
7027 38 1
7028 18 8
7028 19 11
7028 20 4
7029 18 4
7029 19 3
7029 20 1
7029 21 8
7029 22 2
7030 29 12
7030 30 2
7031 11 1
7031 19 2
7031 24 1
7031 28 1
7032 18 1
7033 3 1
7033 14 1
7033 28 10
7033 34 1
7034 18 1
7035 31 1
7036 8 1
7037 24 31
7037 38 1
7038 3 1
7038 11 1
7038 29 1
7039 8 1
7040 4 1
7040 5 4
7040 38 5
7041 2 1
7042 7 2
7042 8 5
7043 12 4
7043 13 1
7043 14 2
7044 4 7
7044 5 34
7044 14 1
7044 24 1
7044 34 1
7044 38 40
7045 18 1
7046 19 1
7047 3 2
7047 15 1
7048 3 2
7048 8 1
7048 14 1
7048 16 1
7048 18 1
7048 20 2
7048 26 1
7048 29 2
7048 31 1
7048 34 2
7048 38 1
7049 2 3
7049 3 5
7049 26 4
7049 34 3
7050 15 1
7051 4 4
7051 5 22
7051 29 1
7051 38 24
7052 24 1
7053 10 1
7054 24 1
7055 2 15
7055 3 35
7055 34 63
7056 12 6
7056 14 8
7057 9 1
7058 3 1
7058 5 1
7058 34 5
7059 12 1
7060 11 1
7061 31 7
7062 15 1
7063 22 1
7064 12 1
7065 2 1
7066 3 1
7066 4 6
7066 5 30
7066 24 18
7066 28 1
7066 38 36
7067 5 1
7067 12 1
7068 34 1
7069 9 2
7069 10 16
7069 11 11
7069 18 13
7069 19 20
7069 20 4
7070 23 1
7070 24 13
7071 3 1
7071 10 1
7071 19 1
7071 20 1
7071 24 1
7072 21 23
7072 22 19
7072 26 1
7073 12 1
7073 18 6
7073 19 4
7073 20 1
7074 4 1
7075 29 1
7076 31 12
7077 18 1
7078 18 17
7078 19 19
7078 20 13
7079 21 2
7079 22 2
7080 12 1
7081 5 1
7082 9 2
7082 10 2
7082 11 3
7083 3 1
7083 19 1
7084 24 6
7085 21 1
7086 18 1
7086 29 2
7087 7 2
7087 8 3
7087 18 6
7087 19 8
7087 20 5
7087 38 1
7088 34 1
7089 34 1
7090 34 1
7091 24 3
7092 21 1
7093 3 1
7094 31 1
7095 8 1
7095 18 1
7095 19 2
7095 20 1
7096 11 1
7097 19 1
7098 2 1
7098 3 2
7098 5 1
7098 9 2
7098 16 1
7098 18 1
7098 20 1
7098 21 1
7098 24 2
7099 28 1
7100 4 3
7100 5 18
7100 38 22
7101 24 2
7102 3 1
7102 4 1
7102 5 8
7102 10 1
7102 29 1
7102 38 6
7103 9 6
7103 10 16
7103 11 6
7104 29 1
7105 3 1
7105 4 3
7105 5 22
7105 19 1
7105 38 19
7106 21 6
7106 22 4
7107 34 2
7108 4 5
7108 5 19
7108 38 21
7109 31 1
7109 34 1
7110 5 1
7110 9 1
7110 12 1
7110 28 1
7110 34 2
7110 38 1
7111 8 1
7112 5 1
7112 8 5
7112 19 1
7112 28 6
7112 38 1
7113 28 1
7114 18 1
7115 18 1
7116 26 1
7117 21 6
7117 22 8
7118 7 1
7118 28 1
7118 29 14
7118 30 2
7119 38 1
7120 3 1
7121 14 1
7122 26 1
7123 15 1
7123 28 4
7123 29 5
7124 34 1
7125 34 1
7126 5 1
7126 9 1
7126 24 20
7127 4 3
7127 5 9
7127 38 16
7128 2 2
7128 3 2
7128 4 1
7128 16 1
7128 20 1
7128 21 2
7128 31 1
7128 34 1
7128 38 1
7129 2 1
7129 3 1
7130 4 1
7130 5 17
7130 38 12
7131 17 1
7132 4 9
7132 5 29
7132 38 44
7133 3 1
7133 14 1
7133 15 1
7134 34 1
7135 12 1
7136 2 1
7136 3 2
7136 4 1
7136 5 1
7136 12 1
7136 31 1
7136 34 1
7136 38 2
7137 24 3
7138 2 1
7138 5 1
7138 10 1
7138 14 1
7138 18 1
7138 19 1
7138 34 1
7139 29 6
7139 30 2
7140 12 1
7140 18 1
7141 2 1
7141 3 1
7141 9 2
7141 11 1
7141 18 1
7141 34 1
7142 3 1
7143 15 2
7144 24 1
7145 11 1
7146 22 1
7147 2 1
7147 3 1
7147 5 2
7147 10 1
7147 12 1
7147 14 1
7147 18 1
7147 21 2
7147 24 1
7147 28 1
7147 34 1
7148 34 1
7149 20 1
7150 31 1
7151 21 1
7152 17 1
7153 21 17
7153 22 13
7154 19 1
7154 20 1
7155 3 1
7156 28 1
7157 34 1
7158 5 6
7158 22 1
7158 34 1
7158 38 8
7159 20 1
7160 22 1
7160 24 10
7161 21 1
7161 24 7
7162 21 57
7162 22 28
7162 34 2
7163 5 2
7163 38 6
7164 26 1
7165 2 1
7165 14 1
7166 4 1
7166 9 1
7166 18 1
7167 28 1
7168 31 1
7169 9 1
7170 29 1
7171 29 3
7171 30 1
7172 5 2
7172 29 1
7172 34 1
7172 38 3
7173 4 5
7173 5 11
7173 38 9
7174 9 7
7174 10 16
7174 11 7
7174 26 1
7175 24 1
7175 34 1
7176 27 1
7176 28 11
7177 2 7
7177 3 21
7177 24 1
7177 34 16
7178 5 1
7178 15 1
7179 38 1
7180 29 1
7181 12 1
7182 15 1
7183 24 8
7184 18 28
7184 19 26
7184 20 4
7184 38 1
7185 19 1
7186 2 1
7186 28 2
7187 15 1
7188 3 1
7188 34 2
7189 12 1
7189 16 1
7189 19 1
7190 19 1
7190 29 21
7190 30 1
7191 19 1
7192 19 1
7193 8 1
7193 31 1
7194 3 1
7194 28 2
7195 2 1
7195 5 8
7195 29 1
7195 38 14
7196 29 1
7197 29 1
7198 5 1
7199 2 18
7199 3 30
7199 34 40
7200 34 1
7201 5 1
7202 11 1
7202 18 1
7202 19 2
7202 20 3
7203 31 1
7204 28 1
7205 20 1
7206 34 1
7207 21 26
7207 22 7
7208 24 12
7209 29 1
7210 15 1
7211 21 1
7211 22 1
7211 38 1
7212 24 1
7213 22 1
7214 5 1
7214 21 18
7214 22 15
7215 15 1
7215 19 1
7216 22 1
7217 7 12
7217 8 11
7217 34 1
7218 4 2
7218 5 20
7218 21 1
7218 24 2
7218 38 17
7219 24 1
7220 16 1
7220 19 1
7220 24 14
7221 3 1
7222 18 3
7222 19 1
7222 20 1
7223 3 1
7224 4 6
7224 5 30
7224 38 28
7225 11 1
7226 3 1
7227 3 1
7228 21 1
7228 34 2
7229 38 1
7230 3 1
7231 18 20
7231 19 17
7231 20 7
7232 29 5
7232 38 1
7233 38 1
7234 22 1
7235 9 6
7235 10 8
7235 11 11
7235 21 1
7236 23 1
7236 24 12
7237 1 1
7237 2 7
7237 3 24
7237 34 38
7238 21 32
7238 22 31
7239 11 1
7240 12 1
7240 14 2
7241 18 4
7241 19 15
7241 20 3
7242 24 1
7243 4 1
7243 9 1
7243 10 4
7243 11 2
7243 15 1
7244 24 1
7245 11 2
7246 3 1
7247 28 1
7248 7 1
7248 8 2
7249 15 1
7249 16 2
7249 17 3
7250 7 1
7251 5 1
7252 21 1
7253 5 1
7254 21 1
7255 24 7
7256 18 1
7257 15 1
7258 31 9
7259 22 1
7260 5 3
7260 24 1
7260 38 4
7261 2 1
7261 21 1
7262 15 1
7262 18 7
7262 19 13
7262 20 5
7262 29 1
7263 19 1
7264 8 1
7265 24 1
7265 38 5
7266 10 1
7267 31 1
7268 26 1
7269 29 26
7269 30 1
7269 31 1
7270 5 1
7271 18 1
7271 29 2
7272 34 1
7273 24 1
7274 24 1
7275 5 1
7275 17 1
7276 21 2
7277 5 7
7277 21 1
7277 38 5
7278 7 1
7279 7 4
7279 8 7
7280 31 6
7280 34 1
7281 24 12
7282 29 1
7283 15 1
7283 29 28
7283 30 4
7284 5 1
7284 11 1
7285 34 1
7286 21 11
7286 22 10
7286 24 1
7287 29 23
7288 4 7
7288 5 24
7288 19 1
7288 38 27
7289 5 1
7290 34 1
7291 19 2
7292 10 1
7293 15 5
7293 16 1
7293 17 4
7294 2 1
7294 29 1
7294 31 1
7295 3 1
7296 12 1
7297 3 2
7297 8 1
7297 18 1
7297 24 2
7297 34 3
7298 3 1
7299 24 1
7300 24 20
7300 38 1
7301 38 1
7302 12 1
7302 38 2
7303 2 2
7303 3 2
7303 21 1
7303 31 1
7303 34 11
7304 22 1
7304 29 8
7304 30 1
7304 31 2
7305 20 1
7306 22 1
7307 31 6
7308 18 1
7309 3 1
7309 18 31
7309 19 65
7309 20 23
7310 29 1
7311 28 4
7311 30 1
7311 38 1
7312 22 1
7313 5 1
7314 29 13
7315 17 1
7316 31 1
7317 3 1
7318 29 9
7319 21 1
7319 28 1
7320 22 1
7321 3 1
7322 4 1
7322 5 5
7322 17 1
7322 21 2
7322 34 1
7322 38 8
7323 2 1
7323 38 1
7324 24 5
7325 7 1
7325 8 4
7325 11 1
7325 34 1
7326 22 1
7327 12 1
7327 18 1
7327 29 1
7328 4 1
7328 5 3
7328 38 15
7329 10 1
7329 16 1
7329 19 1
7330 2 1
7330 26 1
7331 28 5
7331 31 16
7332 31 1
7333 34 1
7334 5 1
7335 38 1
7336 15 2
7336 16 5
7336 17 3
7337 4 1
7337 10 1
7337 38 1
7338 2 1
7338 5 2
7338 15 1
7339 38 1
7340 5 1
7340 38 2
7341 11 1
7342 18 1
7343 4 6
7343 5 25
7343 24 2
7343 30 1
7343 34 1
7343 38 25
7344 5 1
7345 4 2
7345 5 30
7345 38 45
7346 5 1
7347 26 7
7348 3 1
7348 9 8
7348 10 15
7348 11 11
7348 20 1
7349 29 9
7349 30 1
7350 3 1
7350 19 1
7351 18 22
7351 19 25
7351 20 7
7352 21 1
7353 8 1
7354 31 2
7354 34 1
7355 12 1
7356 18 3
7356 19 3
7356 20 3
7357 34 2
7358 24 1
7359 2 1
7359 29 4
7360 19 1
7361 11 1
7361 14 1
7361 34 1
7361 38 1
7362 22 1
7363 15 1
7363 16 2
7363 17 1
7364 10 1
7365 2 2
7365 3 5
7365 11 1
7365 34 2
7365 38 1
7366 1 1
7366 2 2
7366 3 4
7366 34 7
7367 2 1
7367 14 1
7367 29 1
7368 34 1
7369 9 7
7369 10 5
7369 11 7
7369 19 1
7369 34 1
7370 38 1
7371 29 10
7371 30 1
7372 1 2
7372 2 6
7372 3 34
7372 29 27
7372 30 2
7372 31 1
7372 34 38
7373 2 3
7373 3 4
7373 5 1
7373 11 1
7373 18 1
7373 21 1
7373 24 1
7373 28 1
7373 31 10
7373 34 11
7373 38 2
7374 2 1
7374 38 1
7375 29 1
7376 4 1
7376 5 1
7376 38 1
7377 15 1
7378 2 11
7378 3 14
7378 34 12
7379 15 1
7380 17 1
7381 3 1
7382 15 4
7382 16 1
7382 17 2
7383 34 1
7384 3 1
7384 12 1
7384 19 1
7384 29 2
7384 30 1
7384 34 3
7384 38 2
7385 12 1
7385 15 1
7386 29 1
7387 3 1
7388 18 1
7389 19 1
7390 5 2
7390 28 3
7391 19 1
7392 5 1
7393 29 1
7394 5 1
7394 7 9
7394 8 18
7394 38 1
7395 24 6
7396 15 1
7396 17 3
7396 38 1
7397 22 1
7398 5 2
7398 15 4
7398 16 2
7398 17 3
7398 24 1
7398 38 5
7399 24 1
7400 38 1
7401 31 9
7402 2 1
7402 8 1
7402 10 1
7402 34 1
7403 24 1
7403 31 6
7404 19 1
7405 5 1
7406 2 1
7406 5 3
7406 38 11
7407 2 1
7407 34 1
7408 7 5
7408 8 15
7408 34 1
7409 38 1
7410 19 1
7411 4 6
7411 5 31
7411 38 39
7412 3 1
7412 14 1
7412 17 1
7412 18 1
7413 17 1
7414 4 3
7414 5 18
7414 38 26
7415 12 1
7416 5 8
7416 38 14
7417 12 1
7417 19 2
7418 3 1
7418 21 39
7418 22 25
7419 15 1
7420 3 1
7420 38 1
7421 31 25
7422 11 1
7422 21 16
7422 22 16
7422 34 1
7423 5 1
7423 14 1
7423 29 9
7424 20 1
7425 12 1
7425 14 5
7426 34 1
7427 2 8
7427 3 8
7427 34 15
7427 38 1
7428 7 10
7428 8 24
7429 24 1
7430 23 1
7430 24 15
7431 18 1
7431 19 1
7432 2 1
7433 21 2
7434 28 7
7435 3 1
7436 8 1
7437 18 1
7438 2 1
7438 24 7
7439 16 1
7439 38 1
7440 3 1
7440 5 1
7440 10 1
7440 18 1
7440 21 1
7440 24 1
7440 28 1
7440 30 1
7440 38 1
7441 26 3
7442 24 1
7443 12 1
7443 18 1
7443 38 1
7444 20 1
7444 22 1
7445 29 1
7446 31 1
7447 18 33
7447 19 48
7447 20 9
7448 29 1
7449 21 1
7449 34 1
7450 3 1
7450 13 1
7450 24 1
7451 3 1
7451 9 7
7451 10 24
7451 11 15
7451 38 1
7452 4 2
7452 5 3
7452 38 8
7453 18 1
7454 19 1
7455 38 1
7456 3 2
7457 34 1
7458 31 8
7459 24 9
7460 2 11
7460 3 16
7460 5 1
7460 8 1
7460 29 2
7460 30 1
7460 34 16
7461 18 1
7461 24 1
7462 9 1
7463 31 1
7464 19 1
7465 3 1
7466 24 1
7467 20 1
7468 4 3
7468 5 12
7468 12 4
7468 14 4
7468 38 9
7469 1 1
7469 2 4
7469 3 12
7469 21 1
7469 34 17
7470 4 1
7470 15 8
7470 16 3
7470 17 4
7471 3 2
7471 38 1
7472 2 1
7472 3 1
7472 10 1
7473 38 1
7474 19 1
7474 29 1
7475 8 1
7475 13 1
7475 29 2
7475 30 1
7476 12 35
7476 13 2
7476 14 25
7477 4 2
7477 5 20
7477 12 1
7477 38 19
7478 17 1
7478 19 1
7478 21 7
7478 22 1
7478 34 2
7479 31 1
7480 5 1
7480 21 1
7480 28 1
7481 29 22
7481 30 1
7482 38 1
7483 9 8
7483 10 15
7483 11 9
7484 24 1
7485 1 1
7485 2 10
7485 3 28
7485 18 1
7485 21 12
7485 22 10
7485 34 27
7486 12 18
7486 14 16
7486 15 1
7487 24 1
7488 24 13
7489 18 10
7489 19 11
7489 20 6
7490 12 1
7491 28 1
7492 24 4
7492 34 1
7493 18 1
7494 2 14
7494 3 16
7494 20 1
7494 24 1
7494 31 1
7494 34 18
7495 19 1
7495 29 22
7495 30 2
7496 3 1
7497 4 1
7497 24 1
7497 34 1
7498 18 5
7498 19 9
7498 20 2
7498 34 1
7499 19 1
7500 3 1
7500 15 1
7500 16 1
7500 19 1
7500 20 1
7501 21 1
7502 29 4
7503 34 1
7504 31 7
7504 34 1
7505 2 1
7505 3 5
7505 5 1
7505 8 1
7505 15 2
7505 17 1
7505 19 5
7505 20 1
7505 21 1
7505 24 1
7505 29 2
7505 38 1
7506 18 1
7506 34 1
7507 24 1
7508 3 1
7508 34 1
7509 16 1
7510 9 1
7510 10 8
7510 11 3
7510 21 1
7510 22 1
7510 34 1
7511 24 1
7512 18 28
7512 19 39
7512 20 7
7512 34 1
7513 21 1
7514 5 1
7515 12 9
7515 14 3
7516 4 15
7516 5 44
7516 38 48
7517 3 5
7517 34 7
7518 3 1
7519 11 1
7520 2 3
7520 3 15
7520 5 1
7520 34 5
7521 5 2
7521 18 4
7521 19 4
7521 20 2
7521 38 2
7522 18 1
7523 9 1
7523 22 1
7524 19 1
7524 21 4
7524 22 4
7524 24 1
7524 28 2
7525 24 1
7526 31 3
7527 2 1
7527 3 3
7527 34 2
7528 38 1
7529 5 1
7530 14 1
7531 31 1
7532 8 1
7533 3 1
7534 19 1
7535 4 3
7535 5 33
7535 24 1
7535 38 43
7536 3 1
7536 18 1
7537 5 1
7537 18 1
7538 2 1
7539 19 1
7539 24 1
7540 5 1
7541 16 1
7541 31 1
7542 7 7
7542 8 12
7543 4 11
7543 5 49
7543 34 1
7543 38 67
7544 18 1
7545 3 1
7546 21 1
7547 21 13
7547 22 4
7548 12 34
7548 13 2
7548 14 28
7548 21 1
7549 24 1
7550 24 17
7551 18 1
7552 9 1
7553 24 1
7554 19 1
7555 2 2
7555 18 1
7555 21 1
7555 24 1
7555 34 1
7556 3 1
7556 4 1
7556 5 1
7556 10 1
7556 12 1
7556 19 1
7556 24 2
7556 26 1
7556 29 1
7556 31 2
7556 34 2
7556 38 3
7557 2 1
7557 11 1
7557 14 1
7557 18 1
7557 19 1
7558 12 1
7559 19 1
7560 7 2
7560 8 1
7561 2 1
7562 3 1
7562 17 1
7562 29 5
7562 34 3
7563 38 1
7564 29 1
7565 9 1
7565 10 1
7566 3 3
7566 4 6
7566 5 20
7566 21 9
7566 22 3
7566 31 1
7566 34 5
7566 38 36
7567 3 1
7568 38 1
7569 5 1
7570 20 1
7571 5 1
7571 31 1
7572 19 1
7573 18 1
7574 18 31
7574 19 39
7574 20 7
7574 21 2
7575 12 6
7575 14 3
7576 38 1
7577 2 2
7577 9 1
7577 18 1
7577 28 1
7577 31 1
7577 34 5
7578 18 2
7579 12 1
7579 21 1
7580 8 1
7581 18 1
7581 28 5
7582 17 1
7583 38 1
7584 2 3
7584 3 3
7584 29 3
7584 30 1
7584 34 2
7585 19 1
7586 29 1
7587 3 1
7588 26 1
7589 20 1
7590 5 1
7591 31 9
7592 12 10
7592 14 8
7593 29 1
7594 5 1
7594 18 1
7594 19 1
7594 34 1
7594 38 1
7595 17 1
7595 22 2
7596 3 1
7597 24 1
7598 19 1
7599 3 2
7600 2 4
7600 3 21
7600 21 1
7600 34 22
7601 21 1
7602 2 2
7602 3 1
7602 34 1
7603 5 9
7603 34 1
7603 38 7
7604 2 3
7604 3 16
7604 34 17
7605 21 1
7606 16 1
7607 12 5
7607 14 12
7608 15 21
7608 17 8
7609 34 1
7610 19 1
7611 7 1
7611 22 1
7611 26 1
7611 34 1
7611 38 1
7612 3 1
7613 12 8
7613 14 1
7614 4 1
7614 5 8
7614 38 17
7615 18 1
7616 38 1
7617 7 4
7617 8 4
7618 15 1
7618 18 1
7618 24 2
7618 29 3
7618 34 2
7619 31 1
7620 34 1
7621 7 1
7622 8 1
7623 38 1
7624 18 6
7624 19 6
7624 20 1
7625 18 20
7625 19 24
7625 20 8
7626 3 1
7626 5 1
7626 14 1
7626 16 1
7626 19 1
7626 21 3
7626 24 1
7626 29 2
7626 38 1
7627 30 1
7627 38 1
7628 5 1
7628 26 1
7628 38 4
7629 12 1
7629 18 21
7629 19 52
7629 20 5
7629 28 1
7630 29 1
7631 7 1
7632 29 1
7633 24 1
7634 3 1
7634 20 1
7635 24 25
7636 18 1
7637 9 7
7637 10 4
7637 11 4
7638 24 9
7639 29 9
7639 30 1
7639 34 1
7639 38 2
7640 31 4
7641 3 1
7642 21 12
7642 22 16
7643 28 2
7643 30 1
7644 20 1
7644 26 4
7645 22 2
7646 24 1
7647 5 1
7648 2 1
7648 24 1
7649 18 5
7650 10 1
7651 38 2
7652 5 1
7652 24 4
7652 25 1
7652 26 2
7652 29 6
7652 30 1
7653 15 1
7654 29 1
7655 31 1
7656 34 1
7657 38 1
7658 5 5
7659 3 1
7659 19 1
7659 24 1
7660 8 4
7660 21 3
7660 22 1
7660 24 1
7660 34 1
7661 3 1
7662 21 1
7663 24 2
7664 16 1
7664 21 4
7664 22 2
7664 34 1
7665 5 1
7666 3 1
7667 16 1
7667 23 1
7667 24 6
7668 2 1
7668 3 1
7668 4 1
7668 5 1
7668 10 1
7668 12 1
7668 15 1
7668 19 1
7668 24 1
7668 28 1
7668 29 1
7668 34 2
7668 38 1
7669 9 1
7669 10 1
7669 11 1
7670 15 1
7671 24 2
7672 9 1
7673 15 6
7673 16 4
7673 17 1
7674 18 1
7675 8 10
7675 16 1
7675 18 10
7675 19 25
7675 20 3
7676 12 1
7677 34 1
7678 5 2
7678 28 1
7679 8 1
7679 24 1
7680 2 1
7680 38 1
7681 29 1
7682 12 1
7682 19 1
7683 28 1
7684 24 1
7685 34 1
7686 11 1
7687 1 2
7687 2 21
7687 3 31
7687 28 1
7687 34 35
7688 19 1
7689 29 1
7690 2 1
7690 4 2
7690 5 9
7690 15 8
7690 16 6
7690 17 5
7690 29 3
7690 31 1
7690 38 21
7691 15 1
7691 21 7
7691 22 2
7691 34 1
7692 5 1
7692 29 5
7692 38 1
7693 18 1
7694 12 1
7695 2 6
7695 3 1
7695 29 1
7695 34 1
7696 2 1
7696 15 1
7696 28 3
7696 31 8
7697 9 5
7697 10 11
7697 11 7
7698 29 6
7699 5 1
7700 15 35
7700 16 28
7700 17 22
7701 21 1
7702 29 1
7703 5 1
7704 5 1
7704 24 2
7705 3 1
7705 7 15
7705 8 8
7705 18 1
7705 19 36
7705 20 9
7706 34 1
7707 4 1
7708 11 1
7709 5 1
7709 31 2
7710 2 1
7711 29 1
7712 4 2
7712 5 13
7712 20 1
7712 38 30
7713 21 6
7713 22 5
7713 38 1
7714 15 1
7714 16 1
7715 28 4
7716 2 2
7716 12 1
7716 14 1
7716 18 1
7716 19 1
7716 24 1
7716 29 3
7716 38 1
7717 38 1
7718 34 1
7719 26 1
7719 31 14
7719 34 1
7720 28 4
7721 3 1
7721 29 4
7721 30 1
7722 7 1
7722 31 1
7723 12 1
7723 28 9
7724 38 1
7725 29 2
7726 5 1
7726 24 1
7726 38 1
7727 3 1
7727 12 4
7727 14 1
7728 2 4
7728 3 14
7728 34 22
7729 5 1
7729 31 6
7730 28 1
7731 5 2
7731 29 1
7731 38 11
7732 4 1
7732 5 15
7732 38 6
7733 21 23
7733 22 29
7734 2 1
7734 3 3
7734 34 2
7735 12 22
7735 13 1
7735 14 19
7735 18 1
7736 38 1
7737 29 1
7738 29 1
7738 30 1
7739 16 1
7740 34 1
7741 29 5
7741 30 1
7742 34 1
7743 4 3
7743 5 8
7743 31 1
7743 38 12
7744 24 1
7745 5 1
7745 12 2
7745 14 2
7746 30 1
7747 2 26
7747 3 46
7747 34 31
7748 34 1
7749 24 1
7750 3 1
7751 4 2
7751 5 25
7751 38 17
7752 18 1
7752 34 1
7753 9 5
7753 10 2
7753 11 1
7754 18 11
7754 19 16
7754 20 8
7755 10 5
7755 11 3
7756 31 4
7757 5 1
7758 21 1
7759 38 1
7760 23 1
7760 24 4
7760 29 1
7761 18 2
7762 19 1
7763 10 1
7764 2 1
7765 7 8
7765 8 10
7765 38 1
7766 8 1
7767 19 1
7768 19 1
7769 3 1
7770 29 1
7771 5 1
7771 31 2
7772 18 2
7772 19 7
7772 20 2
7773 29 1
7773 38 1
7774 1 1
7774 2 9
7774 3 12
7774 34 19
7775 19 1
7776 3 1
7776 7 7
7776 8 4
7777 4 1
7777 5 3
7777 9 1
7777 38 2
7778 24 1
7779 34 1
7780 21 1
7781 29 1
7782 38 2
7783 21 1
7784 24 11
7784 28 2
7785 34 1
7786 5 1
7786 15 3
7786 16 2
7786 17 1
7787 3 1
7788 2 1
7789 21 1
7789 22 2
7790 20 1
7791 34 1
7792 5 1
7793 3 1
7794 38 1
7795 29 1
7796 16 1
7797 7 1
7797 8 2
7798 2 1
7798 3 1
7798 34 1
7799 3 1
7799 18 1
7799 19 2
7799 21 2
7799 22 2
7799 29 5
7800 18 1
7801 19 1
7802 29 14
7802 30 1
7803 38 1
7804 19 1
7804 29 4
7805 20 1
7806 34 1
7807 5 2
7807 8 1
7807 9 1
7807 19 2
7807 20 2
7807 22 1
7807 34 2
7808 5 1
7808 28 2
7809 18 1
7810 2 1
7810 12 14
7810 14 6
7810 18 14
7810 19 15
7810 20 8
7811 7 1
7812 4 9
7812 5 40
7812 38 37
7813 38 1
7814 12 1
7814 17 1
7814 34 1
7815 3 1
7816 3 1
7817 34 1
7818 9 1
7818 12 1
7818 14 2
7819 9 7
7819 10 7
7819 11 3
7819 18 2
7820 7 3
7820 8 21
7821 2 1
7821 3 1
7821 24 1
7821 34 1
7822 4 1
7822 5 1
7822 8 2
7822 17 1
7822 18 2
7822 19 1
7822 29 1
7822 31 1
7822 34 3
7822 38 2
7823 31 1
7824 18 2
7824 19 4
7824 20 1
7824 29 1
7825 4 4
7825 5 43
7825 38 79
7826 23 1
7826 24 11
7826 28 3
7827 2 24
7827 3 19
7827 34 35
7828 38 1
7829 4 6
7829 5 41
7829 29 1
7829 38 52
7830 5 1
7830 7 1
7831 3 1
7831 19 1
7831 24 2
7832 14 1
7832 29 16
7832 30 2
7833 2 1
7833 3 3
7833 4 1
7833 5 1
7833 8 1
7833 10 1
7833 12 2
7833 17 1
7833 18 1
7833 19 1
7833 21 1
7833 24 1
7833 28 1
7833 31 1
7833 34 2
7833 38 2
7834 12 1
7835 4 1
7835 5 5
7835 19 1
7835 38 4
7836 24 1
7836 34 1
7837 3 1
7838 3 1
7839 31 2
7840 21 7
7840 22 1
7840 29 1
7841 9 1
7841 12 1
7841 19 77
7842 21 6
7842 22 2
7843 29 30
7843 30 1
7844 28 4
7845 19 1
7846 34 1
7847 38 1
7848 24 1
7849 16 1
7850 21 1
7850 28 1
7851 4 10
7851 5 34
7851 34 1
7851 38 38
7852 1 1
7852 2 9
7852 3 10
7852 24 6
7852 29 6
7852 34 6
7853 1 1
7853 2 1
7853 3 5
7853 29 5
7853 34 12
7854 12 6
7854 13 1
7854 14 3
7854 18 5
7854 19 12
7854 20 7
7855 7 1
7856 18 7
7856 19 4
7857 24 1
7858 9 1
7859 7 6
7859 8 13
7859 22 1
7859 31 1
7860 10 2
7861 5 1
7861 17 1
7861 38 2
7862 38 1
7863 2 1
7863 5 1
7864 8 1
7865 38 1
7866 14 2
7867 8 1
7867 34 1
7868 5 1
7869 12 1
7870 7 1
7870 28 2
7871 34 1
7872 2 1
7872 16 1
7872 21 1
7872 31 1
7872 34 2
7872 38 1
7873 3 1
7873 18 1
7873 31 11
7874 31 3
7875 24 1
7875 31 1
7876 3 1
7876 21 15
7876 22 6
7877 2 1
7877 4 2
7877 5 5
7877 12 1
7877 18 17
7877 19 28
7877 20 7
7877 38 8
7878 12 1
7879 4 11
7879 5 22
7879 38 22
7880 2 1
7881 9 5
7881 10 7
7881 11 2
7882 3 1
7882 4 1
7882 5 1
7882 11 1
7882 14 1
7882 18 1
7882 22 1
7882 24 1
7882 28 1
7882 29 2
7883 15 4
7883 16 1
7883 17 3
7884 3 1
7885 19 1
7885 22 1
7885 31 1
7886 3 1
7887 3 1
7887 19 1
7888 24 9
7888 28 1
7889 8 2
7890 24 1
7891 3 1
7891 12 1
7892 24 1
7893 12 17
7893 13 1
7893 14 5
7894 26 2
7895 5 1
7896 34 1
7897 3 1
7898 9 5
7898 10 8
7898 11 3
7899 9 8
7899 10 24
7899 11 18
7899 28 1
7900 2 1
7901 20 1
7902 11 1
7902 18 1
7902 21 1
7903 9 1
7903 10 2
7903 11 1
7904 2 9
7904 3 6
7904 34 19
7905 2 1
7905 9 25
7905 10 22
7905 11 24
7905 29 1
7905 34 1
7906 4 4
7906 5 20
7906 38 31
7907 19 2
7908 24 14
7909 7 1
7909 29 7
7909 30 2
7909 38 1
7910 14 1
7911 1 1
7911 2 14
7911 3 24
7911 34 24
7912 22 1
7913 15 1
7914 15 1
7915 12 1
7916 3 1
7917 19 1
7917 29 9
7917 30 4
7918 2 3
7918 3 1
7918 24 2
7918 29 7
7918 34 4
7919 3 1
7919 28 1
7920 19 1
7921 34 1
7922 12 1
7922 19 1
7922 31 2
7923 4 1
7923 5 13
7923 38 21
7924 8 1
7925 3 2
7925 24 5
7926 28 7
7927 9 1
7928 38 1
7929 18 7
7929 19 16
7929 20 3
7930 20 1
7931 4 1
7931 14 1
7931 18 1
7931 19 1
7932 34 1
7933 2 21
7933 3 53
7933 10 1
7933 34 55
7934 31 13
7935 15 1
7936 5 1
7937 17 1
7937 24 1
7938 14 1
7939 29 4
7940 31 1
7941 24 5
7942 3 1
7943 8 1
7943 34 1
7944 8 1
7945 21 1
7946 34 1
7947 15 10
7947 16 10
7947 17 6
7948 2 7
7948 3 8
7948 24 1
7948 34 8
7949 38 1
7950 4 2
7950 5 8
7950 38 9
7951 4 4
7951 5 16
7951 17 1
7951 26 1
7951 38 24
7952 3 1
7952 34 1
7953 15 1
7953 16 1
7953 17 1
7954 10 1
7954 19 1
7954 34 1
7955 38 1
7956 9 1
7956 10 7
7956 11 5
7957 29 3
7958 2 1
7958 4 1
7958 5 1
7958 7 1
7958 10 1
7958 11 1
7958 15 1
7958 19 1
7958 21 1
7958 29 1
7958 34 3
7958 38 1
7959 24 1
7960 12 1
7960 38 1
7961 5 1
7961 9 1
7961 10 1
7961 11 5
7961 21 18
7961 22 11
7962 26 5
7963 2 1
7963 5 1
7963 18 1
7963 19 1
7963 22 1
7963 24 1
7963 26 1
7963 29 1
7963 31 1
7963 34 2
7964 3 1
7964 21 7
7964 22 12
7964 29 2
7965 19 2
7966 5 1
7966 20 1
7966 24 1
7966 28 1
7966 38 1
7967 5 1
7967 19 1
7967 31 1
7967 38 1
7968 21 34
7968 22 20
7969 11 1
7970 19 1
7971 18 1
7972 24 12
7973 9 4
7973 10 13
7973 11 4
7973 21 4
7973 22 3
7974 38 1
7975 29 1
7976 19 1
7977 21 1
7978 10 1
7978 29 1
7979 1 1
7979 2 10
7979 3 24
7979 24 7
7979 31 1
7979 34 31
7980 24 1
7981 24 15
7981 34 1
7982 14 1
7982 31 1
7983 1 1
7983 2 8
7983 3 18
7983 11 1
7983 18 3
7983 19 5
7983 20 1
7983 34 16
7984 4 1
7984 18 8
7984 19 5
7984 29 1
7984 34 1
7985 29 11
7986 31 9
7987 3 2
7987 31 7
7987 33 1
7988 5 6
7988 29 1
7988 38 14
7989 21 1
7990 5 1
7990 14 1
7990 34 1
7990 38 1
7991 2 1
7991 3 1
7991 5 3
7991 10 1
7991 16 3
7991 24 3
7991 28 1
7991 29 1
7991 34 5
7992 1 2
7992 2 30
7992 3 27
7992 17 1
7992 19 1
7992 20 1
7992 24 1
7992 26 1
7992 31 1
7992 34 42
7993 29 1
7994 2 20
7994 3 35
7994 4 1
7994 21 1
7994 34 46
7995 5 2
7995 19 1
7995 24 1
7995 38 8
7996 23 1
7996 24 9
7997 3 1
7998 22 1
7999 17 1
8000 2 1
8000 3 2
8000 21 1
8000 24 2
8000 28 1
8001 4 5
8001 5 34
8001 38 34
8002 19 1
8002 24 1
8003 34 1
8004 29 1
8004 38 1
8005 18 6
8005 19 4
8005 20 2
8006 15 8
8006 16 5
8006 17 2
8007 29 38
8007 30 2
8007 38 1
8008 8 1
8009 29 1
8010 19 1
8010 23 1
8010 24 55
8011 2 1
8012 14 1
8012 24 2
8013 4 1
8013 5 1
8013 12 1
8014 3 1
8014 15 4
8014 16 2
8014 17 7
8014 28 1
8015 12 1
8015 38 1
8016 2 16
8016 3 27
8016 34 38
8017 24 1
8018 24 1
8018 29 31
8018 34 1
8019 21 1
8020 15 1
8021 3 1
8022 21 17
8022 22 19
8023 31 1
8024 4 1
8025 1 2
8025 2 32
8025 3 58
8025 34 56
8026 3 1
8027 29 1
8028 12 1
8029 14 1
8030 12 1
8031 10 1
8032 2 1
8033 7 1
8034 7 5
8034 8 5
8035 29 1
8036 4 1
8037 5 1
8038 24 4
8039 3 1
8039 12 10
8039 14 2
8039 16 4
8040 21 9
8040 22 3
8040 38 1
8041 8 1
8042 3 1
8042 4 1
8042 5 1
8042 11 1
8042 12 1
8042 14 1
8042 18 3
8042 19 2
8042 24 1
8042 25 1
8042 28 1
8042 31 1
8042 34 6
8042 38 2
8043 24 1
8044 2 1
8044 18 18
8044 19 12
8044 20 3
8044 31 1
8045 12 26
8045 14 12
8045 29 1
8046 21 1
8047 3 1
8048 18 1
8048 34 1
8049 2 1
8049 29 7
8050 31 4
8051 5 1
8051 38 1
8052 28 1
8053 12 10
8053 14 10
8054 2 1
8055 1 1
8055 2 2
8055 3 39
8055 19 1
8055 34 44
8055 38 1
8056 12 32
8056 14 10
8057 19 1
8058 7 1
8059 3 1
8059 26 1
8060 21 6
8060 22 7
8061 2 1
8061 3 8
8061 34 8
8062 24 1
8063 21 1
8064 3 1
8065 12 21
8065 14 12
8065 31 1
8066 24 1
8067 28 1
8068 29 1
8069 10 1
8070 2 27
8070 3 53
8070 29 10
8070 30 2
8070 34 69
8071 31 1
8071 34 1
8072 4 5
8072 5 25
8072 7 9
8072 8 22
8072 24 1
8072 34 1
8072 38 29
8073 4 1
8073 5 14
8073 38 14
8074 21 1
8074 22 2
8074 28 2
8075 12 1
8075 18 14
8075 19 19
8075 20 15
8075 34 1
8076 19 1
8077 3 1
8077 17 1
8077 18 1
8077 21 1
8077 31 1
8077 34 1
8078 3 1
8078 18 1
8078 19 2
8078 34 1
8078 38 2
8079 8 1
8079 12 5
8079 14 1
8079 19 1
8079 38 1
8080 29 1
8081 10 2
8081 21 8
8081 22 6
8082 12 1
8082 29 13
8082 30 3
8083 16 3
8083 17 1
8084 5 1
8084 14 1
8084 34 1
8084 38 1
8085 29 1
8086 18 1
8086 21 10
8086 22 8
8087 3 1
8087 12 18
8087 13 1
8087 14 13
8088 15 1
8089 15 2
8089 17 1
8089 18 2
8090 22 1
8090 31 21
8091 29 1
8092 12 1
8092 17 1
8093 38 1
8094 15 1
8094 19 1
8094 21 14
8094 22 8
8095 21 1
8096 19 1
8096 22 1
8096 29 21
8096 30 1
8097 38 1
8098 4 1
8098 5 32
8098 38 31
8099 34 1
8100 3 1
8100 29 1
8101 22 1
8101 38 1
8102 18 1
8103 10 1
8104 12 1
8105 23 1
8105 24 15
8105 28 1
8105 38 1
8106 9 1
8106 18 56
8106 19 66
8106 20 29
8107 8 6
8108 15 1
8108 16 1
8108 17 1
8109 12 1
8110 19 1
8111 34 1
8112 28 3
8113 24 18
8114 24 3
8115 12 1
8115 29 1
8115 31 4
8116 19 2
8117 2 1
8117 9 3
8117 10 10
8117 11 4
8118 1 1
8118 2 28
8118 3 62
8118 29 9
8118 34 68
8119 12 1
8119 31 2
8120 3 1
8121 29 2
8122 2 1
8123 34 1
8124 38 1
8125 9 1
8126 29 1
8126 30 1
8126 31 3
8127 38 1
8128 19 1
8128 28 1
8128 38 1
8129 3 1
8130 21 1
8131 38 1
8132 15 1
8133 5 1
8133 23 2
8133 24 20
8134 2 8
8134 3 17
8134 34 17
8135 29 1
8136 21 13
8136 22 18
8136 34 1
8137 2 1
8137 12 3
8137 14 1
8137 28 1
8138 3 2
8138 34 2
8139 4 4
8139 5 11
8139 34 1
8139 38 12
8140 28 1
8141 31 4
8142 19 1
8143 3 1
8144 1 1
8144 2 15
8144 3 27
8144 34 28
8145 12 1
8146 3 1
8147 38 1
8148 9 1
8148 19 1
8148 24 1
8149 34 2
8150 34 1
8151 31 3
8152 34 1
8153 28 1
8154 34 1
8155 5 1
8155 14 2
8155 18 9
8155 19 15
8155 20 3
8156 3 1
8156 12 1
8157 8 1
8157 24 1
8158 2 1
8158 18 1
8158 19 1
8159 14 1
8159 38 1
8160 3 1
8160 31 28
8161 2 1
8161 5 1
8161 11 1
8161 22 1
8161 24 1
8161 29 1
8161 38 1
8162 1 1
8162 2 12
8162 3 24
8162 18 1
8162 34 26
8163 7 1
8163 8 6
8164 24 10
8165 29 2
8166 34 1
8167 10 1
8168 20 1
8169 2 1
8170 5 1
8170 38 3
8171 2 2
8171 5 1
8171 14 1
8171 19 2
8171 24 1
8171 29 1
8171 38 1
8172 38 1
8173 9 1
8173 10 2
8173 11 1
8174 19 1
8174 23 1
8174 24 12
8174 38 2
8175 12 2
8175 21 1
8176 11 1
8176 29 1
8177 5 1
8178 29 13
8178 30 1
8178 38 1
8179 3 1
8180 15 15
8180 16 5
8180 17 9
8181 12 1
8181 26 3
8181 29 4
8182 34 2
8183 9 1
8183 10 1
8183 11 2
8184 3 3
8184 31 1
8184 34 2
8185 24 1
8186 31 3
8187 5 1
8187 29 1
8188 38 1
8189 2 1
8189 4 2
8189 5 11
8189 12 1
8189 22 1
8189 38 19
8190 3 1
8190 9 16
8190 10 30
8190 11 10
8190 38 1
8191 29 18
8191 30 1
8192 31 9
8193 3 1
8193 15 2
8193 16 1
8193 34 1
8194 18 64
8194 19 79
8194 20 25
8195 10 1
8196 10 1
8197 17 1
8198 19 1
8199 3 1
8199 5 1
8200 38 1
8201 4 1
8201 5 1
8201 38 4
8202 3 1
8202 24 1
8203 34 1
8204 2 11
8204 3 19
8204 21 1
8204 26 8
8204 29 1
8204 31 3
8204 34 21
8205 2 1
8205 5 1
8205 15 1
8205 21 1
8205 24 1
8205 34 1
8206 34 1
8207 7 1
8207 8 2
8207 12 1
8208 1 1
8208 2 26
8208 3 50
8208 29 1
8208 34 50
8209 38 1
8210 20 1
8211 34 1
8212 2 5
8212 3 13
8212 24 1
8212 34 9
8213 34 1
8214 28 1
8215 18 19
8215 19 18
8215 20 7
8216 18 1
8216 29 1
8217 7 2
8217 8 4
8218 4 1
8218 20 1
8218 28 5
8219 12 11
8219 13 1
8219 14 4
8220 21 1
8220 38 1
8221 25 1
8221 26 4
8222 2 1
8223 21 1
8224 29 5
8225 2 1
8225 5 1
8225 11 1
8225 18 1
8225 22 1
8225 24 1
8225 29 1
8225 34 1
8225 38 1
8226 19 1
8227 29 16
8227 30 1
8228 15 1
8228 29 8
8228 30 1
8229 34 1
8230 3 1
8230 5 1
8230 12 1
8230 18 1
8230 19 3
8230 22 1
8230 34 2
8230 38 2
8231 3 1
8232 29 16
8232 30 1
8234 3 1
8234 21 1
8234 24 2
8234 31 1
8235 3 1
8235 7 1
8236 3 1
8237 29 1
8237 31 6
8237 34 1
8238 29 1
8239 24 2
8240 29 1
8241 8 1
8241 18 1
8241 24 1
8241 31 2
8242 2 5
8242 3 3
8242 31 3
8242 34 7
8243 11 1
8244 9 4
8244 10 1
8245 3 1
8246 5 1
8246 12 1
8246 19 1
8247 29 7
8247 30 2
8248 5 1
8249 8 1
8250 20 1
8250 29 1
8250 31 15
8251 8 1
8251 24 1
8251 38 1
8252 3 1
8253 2 1
8254 2 1
8254 4 11
8254 5 35
8254 11 1
8254 12 1
8254 23 1
8254 24 22
8254 29 2
8254 38 50
8255 38 1
8256 5 1
8256 14 1
8256 34 2
8256 38 1
8257 19 1
8257 24 3
8257 31 3
8258 34 1
8259 4 1
8259 18 12
8259 19 19
8259 20 4
8260 29 5
8260 34 1
8261 24 1
8262 2 1
8263 21 3
8263 22 6
8264 2 1
8265 2 1
8265 9 2
8266 22 1
8267 14 1
8268 21 11
8268 22 10
8268 34 1
8269 5 1
8269 19 1
8270 3 1
8270 12 3
8270 14 1
8270 26 1
8270 31 1
8270 38 1
8271 17 1
8271 20 1
8272 16 1
8272 24 4
8273 4 1
8273 31 15
8274 29 4
8275 28 1
8276 20 1
8277 34 1
8278 3 1
8278 5 1
8278 18 1
8278 19 1
8278 21 1
8278 24 1
8278 29 1
8278 38 1
8279 4 1
8279 5 19
8279 38 23
8280 10 1
8281 4 1
8282 29 2
8283 19 1
8284 1 2
8284 2 27
8284 3 85
8284 34 80
8285 29 14
8285 34 1
8286 18 1
8287 21 1
8287 29 20
8287 30 2
8288 2 1
8289 2 6
8289 3 12
8289 5 1
8289 26 1
8289 34 16
8290 22 1
8291 10 1
8292 1 2
8292 4 7
8292 5 47
8292 9 1
8292 12 1
8292 18 1
8292 20 1
8292 24 2
8292 34 5
8292 38 39
8293 38 1
8294 31 1
8295 3 2
8296 20 1
8296 23 1
8296 24 24
8297 5 1
8298 19 1
8299 29 8
8299 30 1
8300 19 1
8301 28 1
8302 38 1
8303 8 1
8304 38 1
8305 2 1
8306 22 1
8307 24 1
8308 29 23
8308 30 2
8309 26 1
8310 3 1
8311 34 1
8312 5 1
8313 5 1
8314 15 1
8315 3 1
8315 34 1
8316 31 1
8316 38 1
8317 16 1
8317 29 9
8318 12 1
8319 31 15
8320 18 1
8321 4 2
8321 5 23
8321 38 22
8323 3 1
8323 4 5
8323 5 24
8323 12 1
8323 38 28
8324 22 1
8325 21 1
8326 20 2
8327 34 1
8328 5 1
8328 28 4
8330 20 1
8330 21 1
8331 15 1
8331 16 1
8331 17 1
8332 12 1
8333 3 1
8334 3 1
8334 12 1
8334 18 1
8334 34 1
8335 38 1
8336 3 1
8337 18 1
8338 2 6
8338 3 17
8338 34 10
8339 18 8
8339 19 5
8339 20 1
8339 24 4
8339 28 1
8340 5 1
8340 12 1
8340 24 9
8340 34 1
8341 18 1
8342 29 5
8342 30 1
8343 18 1
8344 14 1
8345 29 4
8345 34 1
8346 9 12
8346 10 18
8346 11 8
8347 10 1
8347 24 7
8348 21 1
8349 26 1
8350 24 1
8351 38 1
8352 3 1
8352 15 4
8352 16 2
8352 17 8
8352 21 1
8353 18 1
8354 15 19
8354 16 16
8354 17 12
8355 5 1
8355 24 1
8355 29 1
8355 38 2
8356 34 1
8357 34 1
8358 14 1
8359 34 1
8360 10 1
8360 12 14
8360 21 1
8360 29 1
8361 18 1
8361 25 2
8361 26 11
8362 15 1
8362 24 1
8363 24 1
8364 38 1
8365 2 2
8365 3 2
8365 8 1
8365 9 1
8365 10 2
8365 18 1
8365 19 3
8365 22 1
8365 24 1
8365 34 1
8365 38 2
8366 29 1
8367 34 1
8368 38 1
8369 19 1
8370 2 11
8370 3 12
8370 4 2
8370 5 1
8370 7 1
8370 8 2
8370 9 2
8370 10 1
8370 11 2
8370 15 11
8370 16 1
8370 17 2
8370 18 6
8370 19 9
8370 20 1
8370 24 20
8370 26 1
8370 29 12
8370 30 2
8370 31 6
8370 34 6
8370 38 2
8371 22 1
8372 3 1
8373 16 1
8373 24 1
8374 38 1
8375 21 7
8375 22 18
8375 34 1
8376 5 1
8377 20 1
8378 17 1
8379 17 1
8380 29 9
8380 30 1
8381 10 2
8381 11 1
8382 2 1
8383 18 1
8383 29 20
8383 30 2
8384 15 1
8385 7 1
8385 15 1
8385 34 1
8386 8 4
8386 34 1
8387 20 1
8388 29 1
8389 21 1
8389 34 1
8390 24 1
8391 5 1
8391 24 1
8392 18 1
8393 22 1
8394 5 1
8394 15 1
8394 20 1
8394 28 2
8395 24 7
8396 26 1
8397 8 1
8398 22 1
8399 10 1
8399 31 1
8400 17 1
8401 19 1
8402 22 1
8403 19 1
8404 1 1
8404 2 21
8404 3 36
8404 24 1
8404 34 52
8405 19 1
8406 29 5
8407 3 1
8408 24 1
8409 20 1
8410 4 7
8410 5 25
8410 22 1
8410 31 1
8410 38 38
8411 19 1
8411 21 1
8412 18 17
8412 19 29
8412 20 8
8413 38 1
8414 18 1
8415 3 1
8415 5 1
8415 29 1
8415 34 1
8416 11 1
8417 19 1
8418 3 2
8418 12 1
8418 14 1
8418 17 1
8418 19 1
8418 38 1
8419 24 1
8420 34 1
8421 7 7
8421 8 9
8422 18 1
8423 11 1
8424 5 1
8424 21 1
8424 29 2
8425 24 13
8426 18 15
8426 19 17
8426 20 10
8427 4 1
8428 7 1
8428 8 1
8429 7 6
8429 8 4
8430 10 1
8431 38 1
8432 19 1
8433 24 1
8434 3 1
8434 15 5
8434 16 6
8434 17 3
8434 18 10
8434 19 11
8434 20 7
8434 25 1
8434 26 6
8435 4 4
8435 5 25
8435 10 2
8435 34 1
8435 38 32
8436 22 1
8437 38 1
8438 29 3
8438 30 2
8439 16 1
8440 38 1
8441 20 1
8442 34 1
8443 11 1
8444 31 4
8445 2 22
8445 3 40
8445 29 1
8445 34 32
8446 2 1
8446 3 1
8446 11 1
8446 19 2
8446 24 2
8446 38 1
8447 38 1
8448 3 1
8448 4 1
8448 8 1
8448 17 1
8448 18 1
8448 20 1
8448 24 1
8448 28 2
8448 29 2
8448 34 2
8449 31 1
8450 3 1
8451 22 1
8452 24 2
8453 8 1
8454 4 6
8454 5 45
8454 12 1
8454 17 1
8454 38 47
8455 31 1
8456 18 1
8457 9 1
8458 2 1
8459 24 1
8460 21 1
8461 18 1
8461 19 1
8462 9 1
8463 21 1
8464 16 1
8464 21 1
8465 3 1
8466 24 8
8467 22 1
8467 38 1
8468 34 1
8469 9 9
8469 10 18
8469 11 16
8470 11 1
8471 11 1
8471 16 1
8471 18 2
8472 24 1
8473 12 1
8473 15 2
8473 34 1
8474 31 4
8475 38 1
8476 18 10
8476 19 11
8476 20 4
8476 29 1
8477 11 1
8477 22 1
8478 9 6
8478 10 6
8478 14 1
8478 38 1
8479 12 1
8480 12 1
8481 15 12
8481 16 22
8481 17 14
8482 22 1
8483 17 1
8484 5 1
8485 18 1
8485 22 1
8485 34 1
8486 38 1
8487 29 6
8488 18 4
8488 19 1
8488 20 1
8489 2 10
8489 3 20
8489 34 19
8490 9 1
8491 2 1
8492 8 1
8492 16 1
8492 21 1
8492 29 1
8493 3 1
8493 24 2
8493 28 1
8493 30 1
8493 38 1
8494 11 1
8495 8 1
8496 8 1
8497 3 1
8497 5 1
8497 34 1
8498 34 1
8499 2 1
8499 5 1
8500 34 1
8501 12 6
8501 14 5
8502 3 1
8502 11 1
8503 31 1
8504 3 1
8505 21 1
8506 38 1
8507 9 11
8507 10 29
8507 11 13
8507 18 1
8508 18 19
8508 19 24
8508 20 16
8508 34 1
8508 38 2
8509 3 1
8509 15 1
8510 5 1
8511 24 1
8511 38 1
8512 21 1
8513 21 1
8514 14 1
8514 24 10
8515 3 1
8516 23 1
8516 28 4
8517 28 2
8517 34 1
8518 18 1
8519 4 1
8519 5 13
8519 22 1
8519 38 10
8520 7 3
8520 8 3
8521 3 2
8521 5 2
8521 8 1
8521 9 1
8521 12 1
8521 18 1
8521 19 2
8521 20 1
8521 29 3
8521 31 1
8521 34 3
8522 4 1
8522 17 1
8523 28 5
8524 7 1
8525 24 1
8526 19 1
8527 3 1
8528 2 2
8528 3 1
8528 34 1
8529 3 1
8529 34 1
8530 18 1
8530 24 4
8531 19 1
8532 5 1
8532 11 1
8532 14 1
8532 19 1
8532 24 1
8532 34 1
8532 38 2
8533 3 1
8533 5 1
8533 18 15
8533 19 26
8533 20 6
8533 28 1
8534 2 1
8535 5 1
8536 11 1
8537 3 1
8537 34 1
8538 3 1
8538 9 1
8538 19 1
8538 24 1
8538 34 1
8539 3 1
8540 22 1
8540 29 1
8541 5 1
8542 5 3
8542 38 3
8543 31 4
8543 33 1
8544 5 1
8545 19 1
8546 15 3
8546 16 2
8546 17 2
8547 29 15
8547 30 1
8548 28 3
8549 9 20
8549 10 43
8549 11 32
8549 14 1
8550 21 1
8551 34 2
8552 5 1
8552 12 34
8552 14 20
8553 8 2
8554 34 2
8555 14 1
8556 28 8
8557 5 1
8557 14 1
8557 20 1
8557 31 1
8558 38 1
8559 24 41
8559 25 2
8559 26 7
8560 5 2
8561 26 1
8562 24 1
8563 15 1
8563 16 1
8564 14 1
8565 11 1
8565 31 1
8565 34 1
8565 38 1
8566 21 9
8566 22 1
8567 20 1
8568 22 1
8568 28 6
8569 28 2
8570 9 1
8571 21 6
8571 22 8
8572 24 1
8573 19 1
8574 7 1
8575 29 15
8576 24 1
8577 24 6
8578 24 3
8579 2 1
8579 19 1
8580 38 1
8581 3 1
8582 23 1
8582 24 10
8583 3 1
8584 5 1
8585 21 1
8585 24 5
8586 38 1
8587 2 1
8588 5 1
8588 18 6
8588 19 5
8588 20 4
8589 18 1
8589 38 2
8590 2 1
8590 3 1
8590 38 1
8591 11 1
8592 24 1
8593 14 1
8594 2 1
8594 3 1
8595 5 1
8595 8 1
8596 38 1
8597 15 1
8598 14 1
8599 19 1
8600 12 1
8600 18 1
8600 19 4
8600 20 1
8601 18 8
8601 19 11
8601 20 2
8601 29 1
8602 4 1
8602 24 14
8603 22 1
8604 31 1
8605 5 1
8605 20 1
8606 15 1
8607 2 1
8607 3 6
8608 29 1
8609 12 1
8609 28 9
8610 3 1
8610 15 1
8611 4 3
8611 5 34
8611 38 31
8612 21 1
8613 2 1
8613 3 1
8613 19 1
8614 5 1
8614 8 1
8614 10 1
8614 20 1
8614 24 1
8614 29 1
8614 31 1
8614 34 1
8615 3 1
8615 29 7
8616 4 1
8616 28 2
8616 34 1
8617 14 1
8618 3 2
8618 5 1
8618 21 1
8618 38 2
8619 3 1
8619 28 1
8620 2 1
8620 12 1
8621 3 1
8621 4 1
8621 5 1
8621 12 1
8621 20 1
8621 24 1
8621 34 2
8622 21 1
8623 8 1
8623 10 1
8623 14 2
8623 24 1
8623 34 1
8623 38 1
8624 18 1
8625 9 1
8625 19 1
8626 18 1
8627 2 1
8628 21 1
8628 22 2
8629 12 28
8629 13 2
8629 14 28
8630 5 2
8630 7 1
8630 8 2
8630 38 3
8631 2 7
8631 3 7
8631 31 1
8631 34 8
8632 18 1
8633 5 1
8633 38 1
8634 38 1
8635 2 1
8635 5 1
8635 17 1
8635 18 1
8635 19 5
8635 29 1
8635 34 1
8636 18 1
8637 9 1
8637 26 1
8638 3 1
8638 29 1
8639 24 1
8640 31 2
8641 21 1
8642 24 11
8642 28 2
8642 34 1
8643 21 1
8644 4 3
8644 5 26
8644 38 29
8645 5 4
8645 7 1
8645 8 3
8645 38 4
8646 34 1
8647 3 1
8647 24 23
8647 28 1
8648 34 1
8649 26 1
8650 10 1
8651 4 1
8651 7 1
8651 8 1
8651 10 1
8651 14 1
8651 31 1
8651 34 1
8652 29 6
8653 3 1
8654 29 1
8655 4 2
8655 5 2
8655 8 1
8655 18 2
8655 19 2
8655 20 1
8655 21 1
8655 22 1
8655 24 1
8655 29 4
8655 31 1
8655 34 1
8656 10 1
8656 11 1
8657 24 12
8658 24 1
8659 24 1
8660 3 2
8660 5 1
8660 10 1
8660 20 1
8660 21 1
8660 28 1
8660 31 1
8660 34 2
8660 38 1
8661 14 1
8661 23 1
8662 38 1
8663 3 1
8664 18 1
8665 38 1
8666 22 1
8667 27 1
8667 28 4
8668 23 1
8668 24 44
8669 24 1
8670 19 1
8671 31 2
8672 2 1
8672 3 1
8672 12 1
8672 18 1
8672 24 1
8672 29 4
8672 34 5
8673 31 5
8674 3 1
8675 38 1
8676 34 1
8677 34 1
8678 15 2
8678 16 2
8678 17 3
8679 18 1
8680 5 1
8680 38 1
8681 2 1
8681 7 1
8682 2 1
8683 2 1
8684 18 1
8685 29 1
8686 4 3
8686 5 7
8686 38 5
8687 1 1
8687 2 10
8687 3 4
8687 8 1
8687 29 7
8687 30 4
8687 34 8
8688 34 1
8689 24 1
8690 18 1
8691 24 1
8691 31 4
8692 3 1
8693 7 1
8693 18 1
8693 29 1
8693 38 2
8694 5 1
8694 17 1
8695 18 7
8695 19 12
8695 20 3
8696 31 25
8697 29 1
8697 31 1
8698 5 1
8698 20 1
8699 3 1
8700 28 1
8700 38 3
8701 14 1
8701 38 1
8702 38 1
8703 34 1
8704 2 4
8704 5 1
8704 11 1
8704 16 1
8704 17 1
8704 18 1
8704 26 1
8704 29 4
8704 34 1
8705 24 1
8706 12 1
8707 7 6
8707 8 14
8708 5 2
8709 5 5
8709 38 1
8710 20 2
8711 5 3
8712 14 1
8712 24 1
8712 34 1
8713 3 1
8713 19 1
8714 10 1
8714 18 1
8714 24 1
8714 28 1
8715 18 1
8715 19 2
8715 20 1
8716 20 1
8717 2 1
8717 3 1
8717 9 1
8718 2 1
8719 14 1
8720 2 1
8720 5 1
8720 15 7
8720 16 1
8720 17 4
8720 19 1
8721 31 14
8722 5 1
8723 9 2
8723 10 6
8723 11 3
8724 24 13
8725 24 11
8726 18 1
8727 14 1
8728 7 3
8728 8 3
8728 29 1
8728 31 1
8728 38 1
8729 5 1
8729 21 16
8729 22 23
8730 22 1
8731 19 1
8732 19 1
8733 18 1
8734 26 1
8735 29 1
8736 14 1
8736 16 1
8736 31 13
8737 29 1
8738 7 2
8738 8 1
8738 15 1
8739 2 18
8739 3 12
8739 25 1
8739 26 8
8739 31 3
8739 34 15
8739 38 1
8740 11 1
8740 16 1
8740 18 1
8741 28 1
8741 29 1
8741 34 2
8742 3 1
8743 15 1
8743 17 1
8743 38 2
8744 3 1
8745 26 4
8746 2 1
8746 3 2
8746 24 15
8746 34 4
8747 7 2
8747 8 2
8747 21 4
8747 22 2
8748 34 1
8749 18 1
8750 12 1
8751 2 1
8751 3 1
8752 2 1
8753 18 12
8753 19 20
8753 20 3
8753 34 2
8754 12 40
8754 13 1
8754 14 15
8754 29 1
8755 34 1
8756 5 25
8756 24 1
8756 26 1
8756 38 38
8757 34 1
8758 34 1
8759 38 1
8760 12 1
8761 18 8
8761 19 8
8761 20 3
8762 4 4
8762 5 24
8762 8 1
8762 38 16
8763 15 8
8763 16 3
8763 17 3
8764 3 1
8765 21 16
8765 22 13
8765 34 1
8766 20 1
8767 38 1
8768 29 1
8768 34 1
8769 22 1
8770 3 1
8770 14 1
8770 31 2
8771 5 1
8772 16 2
8773 2 1
8773 3 2
8773 5 1
8773 11 1
8773 19 1
8773 22 1
8773 24 1
8773 30 1
8773 34 1
8773 38 1
8774 3 1
8774 7 6
8774 8 12
8775 3 1
8776 5 1
8776 18 1
8777 1 1
8777 2 26
8777 3 36
8777 12 4
8777 14 3
8777 26 1
8777 34 46
8778 5 1
8779 34 1
8780 15 1
8781 31 4
8782 9 2
8782 11 5
8783 15 3
8783 16 1
8783 17 1
8784 24 4
8785 14 1
8786 24 7
8787 3 1
8788 3 1
8788 10 1
8788 31 1
8789 16 1
8789 31 1
8790 38 1
8791 34 1
8792 18 23
8792 19 56
8792 20 19
8792 29 2
8793 8 1
8793 18 1
8794 34 1
8795 12 1
8796 5 1
8797 4 1
8797 5 3
8797 9 2
8797 10 2
8797 11 4
8797 12 1
8797 14 1
8797 24 8
8797 31 1
8797 38 3
8798 2 1
8798 5 1
8798 18 23
8798 19 35
8798 20 9
8799 12 1
8800 33 1
8801 3 2
8802 3 1
8802 5 2
8802 7 1
8802 8 1
8802 10 1
8802 12 1
8802 19 2
8802 24 1
8802 31 1
8803 34 1
8804 38 1
8805 7 1
8806 3 1
8806 12 4
8806 14 7
8807 24 1
8808 2 1
8808 5 1
8808 21 1
8808 24 2
8808 29 1
8809 2 7
8809 3 13
8809 17 1
8809 34 10
8810 28 5
8810 34 2
8811 34 1
8812 5 1
8812 34 1
8813 9 8
8813 10 18
8813 11 13
8813 18 1
8814 11 1
8815 5 1
8816 34 1
8817 11 1
8818 17 1
8818 22 1
8818 26 3
8819 9 1
8819 19 2
8820 9 21
8820 10 27
8820 11 18
8820 34 1
8821 2 2
8822 3 1
8822 24 1
8823 34 1
8824 38 1
8825 5 1
8825 10 1
8825 12 1
8825 24 1
8825 34 1
8826 2 1
8826 5 1
8826 19 1
8827 29 1
8828 19 1
8828 24 12
8828 31 1
8828 38 1
8829 19 1
8830 5 1
8830 18 4
8830 19 1
8830 20 3
8831 2 11
8831 3 12
8831 19 1
8831 34 22
8832 8 1
8832 10 1
8832 17 1
8833 19 1
8834 34 1
8835 38 1
8836 15 1
8836 28 4
8837 34 1
8838 31 1
8839 10 1
8840 4 1
8840 28 1
8841 3 1
8842 20 1
8843 2 1
8843 14 2
8844 5 1
8844 12 9
8844 14 4
8844 19 1
8844 34 1
8845 3 1
8845 12 15
8845 14 11
8845 18 1
8845 38 1
8846 3 1
8846 29 2
8846 34 1
8847 7 1
8848 24 14
8849 2 1
8849 3 1
8849 5 1
8849 11 1
8849 17 1
8849 19 1
8849 21 4
8849 24 2
8849 29 1
8849 38 3
8850 3 1
8850 29 1
8850 34 1
8850 38 1
8851 38 1
8852 3 1
8852 4 3
8852 5 6
8852 10 4
8852 11 3
8852 14 1
8852 34 1
8852 38 6
8853 3 1
8854 34 1
8855 17 1
8855 19 1
8855 25 2
8855 26 7
8856 10 1
8856 34 1
8857 2 1
8857 3 1
8857 5 1
8857 11 1
8857 13 1
8857 16 1
8857 18 1
8857 19 1
8857 20 1
8857 21 1
8857 22 3
8857 28 2
8857 29 1
8857 31 1
8857 34 2
8857 38 2
8858 3 1
8858 5 1
8858 7 1
8858 18 1
8858 19 1
8858 20 1
8858 22 2
8858 38 1
8859 24 1
8860 28 1
8861 20 1
8862 38 1
8863 34 1
8864 19 1
8864 21 2
8864 22 6
8865 3 1
8866 24 13
8866 38 1
8867 3 2
8867 4 2
8867 5 2
8867 11 1
8867 14 1
8867 19 2
8867 21 1
8867 22 1
8867 24 1
8867 34 2
8868 13 1
8869 24 1
8870 26 1
8870 29 1
8871 38 1
8872 28 5
8873 7 1
8873 8 5
8874 14 1
8875 18 1
8875 21 1
8875 31 1
8876 1 1
8876 2 6
8876 3 17
8876 14 1
8876 34 18
8877 5 1
8877 14 1
8878 9 1
8878 10 5
8879 5 1
8880 38 1
8881 18 11
8881 19 10
8881 20 8
8882 4 1
8882 5 1
8882 19 1
8882 22 3
8882 38 1
8883 12 1
8883 18 1
8884 19 1
8885 5 1
8886 21 1
8887 21 1
8887 24 15
8888 21 1
8889 24 1
8889 34 1
8890 7 4
8890 8 2
8890 14 1
8891 14 1
8892 10 1
8893 3 1
8893 24 1
8894 26 1
8895 28 1
8896 2 1
8897 34 1
8898 18 6
8898 19 6
8898 20 1
8899 14 1
8900 2 2
8900 3 3
8900 5 1
8900 8 1
8900 18 1
8900 19 2
8900 24 2
8900 34 1
8900 38 1
8901 24 10
8902 7 11
8903 2 1
8903 4 1
8903 5 2
8903 10 1
8903 16 1
8903 18 1
8903 28 1
8903 34 2
8903 38 1
8904 9 1
8904 14 1
8904 22 1
8905 4 3
8905 5 11
8905 38 6
8906 21 19
8906 22 21
8906 38 1
8907 24 5
8908 9 29
8908 10 42
8908 11 32
8909 2 2
8909 9 1
8909 12 1
8909 18 1
8909 19 2
8909 21 1
8909 24 2
8909 30 1
8910 34 1
8911 24 1
8912 7 1
8912 8 1
8912 21 21
8912 22 16
8912 34 1
8913 3 2
8913 5 1
8913 12 1
8913 16 1
8913 18 3
8913 19 15
8913 20 4
8913 21 2
8913 24 1
8913 29 1
8913 34 1
8913 38 1
8914 19 1
8914 21 1
8914 24 1
8914 34 1
8915 2 8
8915 3 10
8915 24 18
8915 31 1
8915 34 10
8916 19 7
8916 20 1
8917 3 1
8917 29 5
8917 31 1
8918 3 1
8918 4 2
8918 5 4
8918 11 1
8918 38 6
8919 3 1
8919 22 1
8919 38 1
8920 10 1
8920 34 1
8921 28 2
8922 19 1
8923 18 1
8924 38 1
8925 2 2
8925 3 7
8925 34 10
8926 20 1
8927 2 1
8927 3 7
8927 34 17
8928 3 1
8928 15 1
8928 22 1
8928 28 1
8928 34 3
8929 10 1
8929 31 2
8930 29 6
8931 24 1
8932 5 1
8932 12 1
8933 24 12
8934 4 5
8934 5 12
8934 34 1
8934 38 19
8935 31 1
8936 14 1
8937 29 1
8938 24 11
8939 18 1
8940 5 1
8940 18 1
8940 34 1
8940 38 1
8941 8 1
8942 21 1
8942 38 1
8943 2 1
8943 8 1
8943 20 1
8943 29 1
8943 34 1
8944 7 1
8944 18 19
8944 19 30
8944 20 19
8944 22 1
8945 24 1
8946 20 1
8947 3 1
8947 22 1
8947 24 12
8947 34 1
8948 34 1
8949 4 7
8949 5 27
8949 38 34
8950 3 5
8950 34 5
8951 24 13
8952 31 6
8953 15 9
8953 16 5
8953 17 4
8953 21 20
8953 22 22
8953 24 2
8954 1 1
8954 2 24
8954 3 29
8954 34 37
8955 2 1
8956 12 1
8957 22 1
8958 3 1
8958 5 1
8958 10 1
8958 34 2
8959 4 9
8959 5 40
8959 38 30
8960 5 1
8961 38 1
8962 31 1
8963 1 2
8963 2 8
8963 3 16
8963 34 18
8964 12 7
8964 14 2
8965 24 12
8966 29 4
8967 1 1
8968 11 1
8969 24 1
8970 4 1
8971 24 1
8972 12 1
8973 12 1
8973 20 1
8973 30 1
8973 34 3
8974 19 1
8975 2 1
8976 1 1
8976 2 29
8976 3 51
8976 10 1
8976 34 80
8976 38 1
8977 38 1
8978 14 1
8979 24 1
8980 3 1
8981 38 1
8982 3 2
8983 10 1
8984 38 1
8985 24 1
8986 38 1
8987 24 11
8988 2 1
8989 4 5
8989 5 20
8989 38 22
8990 23 1
8990 24 18
8991 4 4
8991 5 12
8991 24 1
8991 38 11
8992 21 1
8993 26 1
8993 38 1
8994 4 2
8994 5 15
8994 38 5
8995 14 1
8996 3 1
8997 8 1
8998 3 1
8999 2 1
8999 4 1
8999 16 1
8999 18 1
8999 21 1
8999 24 1
8999 38 1
9000 3 1
9001 2 1
9001 3 1
9001 5 2
9001 18 1
9001 20 1
9001 22 1
9001 24 1
9001 29 1
9001 34 4
9001 38 2
9002 22 1
9003 3 1
9004 24 14
9005 34 1
9006 2 1
9006 3 3
9006 24 4
9006 26 1
9006 31 2
9006 34 4
9007 8 1
9007 12 1
9007 14 1
9007 22 1
9007 24 8
9008 4 4
9008 5 21
9008 38 30
9009 21 1
9010 34 1
9011 17 1
9012 20 1
9012 31 1
9013 5 1
9014 31 1
9015 3 1
9015 24 1
9015 29 1
9015 34 1
9016 4 3
9016 5 23
9016 16 1
9016 38 22
9017 5 1
9018 5 1
9018 11 1
9018 28 1
9018 34 1
9019 9 5
9019 10 7
9019 11 8
9020 3 1
9021 29 1
9022 19 1
9023 24 2
9024 10 1
9025 5 1
9026 21 1
9027 17 1
9028 18 1
9029 3 1
9030 3 1
9030 4 6
9030 5 22
9030 38 22
9031 3 1
9032 19 1
9033 10 1
9033 11 1
9033 18 1
9034 9 1
9034 29 1
9035 20 1
9035 29 4
9035 31 2
9036 3 1
9036 20 1
9037 3 1
9037 22 1
9037 31 1
9037 38 2
9038 29 22
9038 30 2
9039 10 1
9040 15 1
9040 16 1
9040 29 7
9040 30 1
9041 5 2
9041 34 1
9041 38 1
9042 3 1
9043 18 1
9044 24 4
9045 21 1
9046 2 1
9047 5 1
9048 29 12
9048 30 4
9049 20 1
9050 22 1
9051 18 1
9051 19 5
9052 28 2
9053 5 1
9054 19 1
9055 1 1
9055 2 11
9055 3 9
9055 5 1
9055 24 15
9055 31 1
9055 34 9
9056 10 1
9056 19 1
9056 20 1
9057 34 1
9058 2 1
9058 18 6
9058 19 14
9058 20 3
9059 21 9
9059 22 8
9060 5 1
9061 5 1
9062 34 1
9063 30 1
9064 29 19
9064 30 3
9065 29 1
9066 24 10
9067 29 1
9068 17 2
9069 3 1
9069 29 2
9070 12 1
9071 12 7
9071 14 6
9072 18 6
9072 19 9
9073 14 1
9074 34 1
9075 26 1
9076 1 1
9076 2 3
9076 3 6
9076 34 7
9077 3 1
9078 3 4
9078 34 4
9079 9 1
9079 10 1
9080 38 1
9081 38 1
9082 24 5
9083 21 8
9083 22 5
9083 38 1
9084 2 10
9084 3 15
9084 34 20
9085 21 4
9085 22 5
9085 38 1
9086 18 1
9087 28 1
9088 3 1
9089 2 1
9089 24 1
9089 34 1
9090 11 1
9091 7 1
9091 34 1
9092 1 1
9092 2 3
9092 3 5
9092 29 1
9092 34 7
9093 22 1
9094 5 1
9095 21 8
9095 22 2
9096 24 1
9097 12 6
9098 38 1
9099 15 1
9100 29 22
9100 30 1
9101 38 1
9102 15 79
9102 17 40
9103 4 3
9103 5 15
9103 38 24
9104 24 1
9105 15 1
9105 20 1
9105 22 1
9105 24 1
9105 26 1
9105 30 1
9105 31 1
9105 38 3
9106 17 1
9107 12 13
9107 13 1
9107 14 5
9108 5 1
9108 12 1
9109 5 1
9110 24 7
9110 34 1
9111 4 3
9111 5 9
9111 38 14
9112 18 1
9112 20 1
9113 22 1
9114 9 3
9114 10 6
9114 11 7
9115 3 1
9115 5 1
9115 12 1
9115 16 1
9115 17 1
9115 21 1
9115 22 1
9115 34 1
9116 10 1
9117 2 8
9117 3 28
9117 19 1
9117 34 45
9118 11 1
9118 29 1
9118 34 2
9119 2 2
9120 2 1
9120 3 1
9120 5 1
9120 8 1
9120 10 2
9120 11 1
9120 21 1
9120 34 1
9121 19 1
9122 8 1
9122 18 1
9122 34 1
9123 18 1
9123 19 2
9124 21 5
9124 22 6
9125 18 18
9125 19 13
9125 20 7
9126 7 1
9126 19 1
9126 21 14
9126 22 19
9127 4 1
9127 14 1
9127 18 13
9127 19 19
9127 20 15
9127 38 1
9128 12 1
9129 34 2
9130 12 1
9130 20 1
9130 34 1
9131 29 5
9131 30 2
9132 3 1
9132 5 1
9132 19 1
9132 23 1
9132 38 1
9133 19 1
9134 4 3
9134 5 19
9134 28 1
9134 38 16
9135 23 1
9135 24 8
9135 34 1
9136 24 1
9137 18 1
9137 21 6
9137 22 2
9138 18 9
9138 19 13
9138 20 5
9139 9 13
9139 10 21
9139 11 14
9139 24 1
9140 24 1
9141 5 1
9142 20 1
9143 11 1
9144 4 1
9144 5 3
9144 9 8
9144 10 13
9144 11 10
9144 38 8
9145 3 1
9145 29 1
9146 5 1
9146 7 1
9147 21 6
9147 22 6
9148 18 1
9148 38 1
9149 3 1
9150 29 2
9151 11 1
9152 3 1
9152 9 7
9152 10 8
9152 11 3
9152 19 1
9153 34 1
9154 28 3
9155 29 1
9155 34 1
9156 26 1
9157 18 1
9157 31 2
9158 8 1
9158 24 1
9159 5 1
9160 16 1
9160 29 5
9161 21 1
9162 10 4
9162 11 3
9162 38 1
9163 38 1
9164 5 1
9164 24 1
9165 14 1
9165 26 1
9166 7 1
9166 8 4
9167 31 1
9168 5 1
9169 8 1
9169 24 1
9170 18 1
9171 24 9
9172 2 1
9173 31 3
9173 34 1
9174 7 1
9175 2 16
9175 3 11
9175 31 6
9175 34 21
9176 29 1
9177 24 1
9177 31 1
9178 5 1
9179 24 1
9179 29 1
9180 28 1
9181 2 2
9181 3 2
9181 12 1
9181 24 1
9181 34 7
9182 5 1
9183 38 1
9184 29 5
9184 30 2
9185 22 1
9186 29 28
9186 30 2
9186 31 16
9187 38 1
9188 2 1
9188 11 1
9188 12 1
9188 34 1
9189 3 1
9189 38 1
9190 24 1
9191 29 1
9192 1 1
9192 2 6
9192 3 9
9192 34 14
9193 4 6
9193 5 10
9193 34 1
9193 38 13
9194 18 1
9195 18 1
9196 14 1
9196 15 50
9196 16 32
9196 17 36
9196 18 1
9197 18 1
9198 2 1
9198 4 6
9198 5 42
9198 34 1
9198 38 42
9199 17 1
9200 24 1
9200 38 1
9201 2 3
9201 5 1
9201 10 1
9201 12 1
9201 19 1
9201 22 1
9201 29 1
9201 38 1
9202 3 1
9203 7 1
9204 15 1
9204 19 1
9205 4 4
9205 5 32
9205 18 2
9205 21 1
9205 38 29
9206 3 2
9206 34 1
9207 5 1
9208 34 1
9209 8 1
9210 3 1
9211 4 1
9211 5 7
9211 38 15
9212 14 1
9213 18 1
9213 22 1
9214 5 1
9214 15 2
9214 16 2
9214 17 1
9215 12 1
9216 4 1
9216 5 3
9216 9 1
9216 10 2
9216 38 3
9217 21 1
9218 26 1
9219 3 1
9220 7 1
9220 8 1
9221 24 3
9222 18 1
9222 24 1
9222 31 7
9223 9 1
9224 3 1
9224 21 1
9224 29 26
9224 34 1
9225 2 5
9225 3 13
9225 34 8
9226 20 1
9227 4 2
9227 5 25
9227 7 5
9227 8 6
9227 38 26
9228 29 1
9229 3 1
9229 5 1
9229 8 1
9229 19 1
9229 21 2
9229 22 1
9229 34 2
9229 38 2
9230 12 1
9231 14 1
9231 29 22
9231 30 3
9231 31 3
9231 38 1
9232 2 13
9232 3 15
9232 34 10
9233 21 1
9234 2 1
9235 12 1
9235 24 1
9235 29 1
9236 19 1
9237 26 1
9238 3 1
9238 31 2
9239 19 1
9240 29 1
9241 31 9
9242 5 1
9242 18 4
9242 19 9
9242 20 6
9243 9 1
9243 38 1
9244 30 1
9245 22 1
9245 34 1
9246 34 1
9247 2 5
9247 3 7
9247 22 1
9247 34 10
9248 2 1
9248 3 1
9248 9 1
9248 17 1
9248 18 1
9248 21 1
9248 24 2
9248 29 1
9248 34 4
9248 38 1
9249 10 1
9249 12 1
9249 29 1
9249 30 1
9249 38 1
9250 3 1
9251 3 1
9252 2 1
9252 9 1
9252 18 9
9252 19 13
9252 20 1
9252 29 1
9253 29 2
9254 29 2
9254 34 2
9255 3 1
9256 34 1
9257 3 1
9258 2 1
9258 3 1
9258 11 1
9258 17 1
9258 19 1
9258 21 1
9258 22 1
9259 8 2
9259 21 1
9259 22 2
9260 3 2
9260 21 1
9261 21 1
9262 12 1
9263 24 5
9264 1 1
9264 2 14
9264 3 33
9264 34 36
9265 34 1
9266 18 1
9266 29 1
9267 3 1
9268 21 8
9268 22 5
9269 38 1
9270 3 1
9271 18 1
9272 38 1
9273 5 1
9274 5 9
9274 38 6
9275 29 1
9276 18 1
9277 11 1
9277 19 1
9278 4 1
9279 3 1
9280 19 1
9281 10 1
9282 5 3
9282 38 2
9283 9 30
9283 10 47
9283 11 32
9283 26 1
9284 38 1
9285 8 2
9286 15 1
9286 38 1
9287 22 1
9288 3 1
9288 4 2
9288 5 4
9288 38 13
9289 29 1
9290 12 1
9291 24 1
9292 16 1
9292 17 1
9293 18 37
9293 19 47
9293 20 11
9294 19 19
9294 20 6
9294 38 2
9295 12 1
9296 34 1
9297 11 1
9298 9 5
9298 10 17
9298 11 13
9299 2 1
9300 38 1
9301 4 1
9301 5 15
9301 38 17
9302 19 1
9303 5 1
9304 8 1
9305 22 1
9306 38 1
9307 38 1
9308 5 1
9308 7 10
9308 8 11
9308 22 1
9308 29 1
9308 34 1
9309 12 2
9310 19 1
9311 19 1
9312 29 1
9313 21 24
9313 22 26
9314 2 1
9315 18 1
9316 11 1
9317 19 1
9318 12 1
9319 4 2
9319 5 11
9319 20 1
9319 24 8
9319 38 7
9320 3 1
9320 29 2
9320 30 1
9320 31 4
9321 12 2
9321 14 1
9321 34 1
9322 25 1
9322 26 2
9323 26 1
9324 29 5
9325 34 1
9326 23 1
9326 24 2
9327 7 1
9327 28 6
9327 34 1
9328 10 2
9328 19 1
9328 38 1
9329 4 3
9329 5 21
9329 38 13
9330 16 1
9331 1 3
9331 2 52
9331 3 113
9331 5 1
9331 19 1
9331 34 118
9331 38 1
9332 16 1
9333 8 1
9333 28 1
9334 9 6
9334 10 7
9334 11 6
9335 29 19
9335 30 1
9336 24 1
9337 2 5
9337 3 4
9337 34 8
9338 5 1
9338 29 1
9338 34 1
9339 18 2
9339 20 1
9340 2 7
9340 3 4
9340 5 1
9340 26 7
9340 34 5
9341 3 1
9341 8 1
9341 21 31
9341 22 13
9341 34 1
9342 12 1
9343 18 5
9343 19 1
9343 20 7
9344 34 1
9345 19 1
9346 28 4
9347 38 1
9348 21 2
9348 24 1
9349 31 1
9350 1 1
9350 2 8
9350 3 21
9350 34 23
9351 12 21
9351 14 16
9352 7 1
9352 19 4
9353 15 1
9353 19 1
9354 18 1
9355 5 1
9355 16 1
9356 2 1
9357 10 3
9358 28 2
9359 25 1
9359 26 3
9360 14 2
9360 34 1
9361 16 1
9362 31 2
9363 14 1
9364 14 1
9364 21 1
9365 20 1
9365 21 1
9366 28 3
9367 22 1
9368 2 1
9368 18 12
9368 19 12
9368 20 2
9368 29 1
9369 3 1
9370 5 1
9371 5 1
9372 5 5
9372 19 1
9372 38 4
9373 11 1
9373 24 5
9374 15 1
9374 16 2
9375 22 1
9376 21 9
9376 22 4
9376 34 3
9377 29 1
9377 34 1
9377 38 1
9378 14 1
9379 11 1
9380 24 1
9380 29 1
9380 31 1
9380 38 1
9381 7 2
9382 3 1
9382 23 1
9382 24 44
9383 20 1
9384 14 1
9385 26 1
9386 19 1
9387 2 1
9387 12 18
9387 14 8
9388 2 12
9388 3 39
9388 34 66
9389 31 4
9390 24 14
9391 5 1
9391 14 1
9391 29 3
9391 30 1
9392 20 1
9393 3 1
9393 22 1
9394 11 1
9394 14 1
9394 28 2
9395 28 1
9396 7 1
9397 24 13
9398 38 1
9399 22 1
9399 31 1
9400 4 3
9400 5 2
9400 34 1
9400 38 7
9401 15 1
9402 38 1
9403 38 1
9404 34 1
9405 9 6
9405 10 8
9405 11 9
9406 3 1
9406 5 2
9406 10 1
9406 22 1
9406 24 1
9406 31 2
9406 34 3
9406 38 1
9407 38 1
9408 5 1
9408 18 1
9409 14 1
9410 24 6
9410 29 1
9411 17 1
9412 5 1
9413 15 2
9414 5 1
9415 31 1
9416 22 1
9417 19 1
9418 22 1
9419 28 1
9419 38 1
9420 10 1
9420 20 1
9421 22 1
9422 5 1
9423 4 3
9423 5 6
9423 14 1
9423 38 13
9424 18 1
9425 18 1
9426 18 44
9426 19 59
9426 20 19
9427 10 1
9427 28 5
9428 18 1
9429 16 1
9430 14 1
9431 14 1
9431 29 21
9431 30 2
9432 27 1
9432 28 4
9433 3 1
9434 21 1
9435 18 1
9435 19 1
9435 22 2
9436 4 3
9436 5 15
9436 38 16
9437 18 17
9437 19 14
9437 20 1
9437 21 1
9438 24 1
9438 29 2
9438 30 1
9438 34 1
9439 29 1
9440 38 1
9441 24 1
9442 16 1
9443 25 2
9443 26 13
9444 3 3
9444 5 1
9444 9 1
9444 15 1
9444 17 1
9444 19 2
9444 20 1
9444 22 1
9444 24 2
9444 28 2
9444 29 1
9444 38 2
9445 15 5
9445 16 1
9445 17 8
9446 2 1
9447 9 1
9447 31 1
9448 19 1
9449 31 2
9450 3 2
9450 5 2
9450 7 1
9450 8 1
9450 14 1
9450 15 1
9450 21 1
9450 24 1
9450 28 1
9450 34 3
9451 7 1
9452 5 1
9453 3 1
9454 2 1
9454 29 6
9455 31 2
9455 32 1
9456 12 1
9456 19 1
9457 31 1
9458 22 1
9459 34 1
9460 2 1
9460 18 33
9460 19 35
9460 20 14
9461 31 1
9462 38 1
9463 5 1
9463 22 2
9464 22 1
9464 34 1
9465 11 1
9465 15 9
9465 16 5
9465 17 4
9465 21 11
9465 22 9
9466 5 1
9466 19 1
9466 21 1
9467 18 2
9467 19 3
9467 20 1
9468 11 1
9469 3 1
9470 18 8
9470 19 4
9471 28 5
9472 34 1
9473 24 1
9474 3 1
9474 19 1
9474 21 6
9474 22 4
9475 26 1
9476 31 1
9476 38 1
9477 2 1
9477 3 1
9477 5 3
9477 10 1
9477 11 1
9477 14 1
9477 18 1
9477 24 1
9477 31 1
9477 34 3
9478 17 1
9479 24 1
9480 22 1
9481 8 1
9482 22 1
9483 3 1
9484 2 1
9484 21 34
9484 22 26
9484 34 1
9485 2 17
9485 3 24
9485 34 26
9486 2 1
9486 38 1
9487 14 1
9487 18 1
9487 19 3
9487 20 3
9488 34 1
9489 21 1
9489 24 1
9490 3 1
9490 12 1
9490 20 1
9490 24 1
9490 29 1
9490 31 1
9491 21 1
9492 19 1
9493 14 1
9493 18 42
9493 19 65
9493 20 22
9494 38 1
9495 5 1
9495 12 1
9495 28 1
9496 12 1
9496 18 1
9496 31 2
9497 34 1
9498 3 1
9498 4 1
9498 10 1
9498 12 1
9498 19 1
9498 34 1
9499 19 1
9500 29 1
9501 29 8
9501 30 2
9502 9 2
9503 22 1
9504 13 1
9504 18 4
9504 19 5
9504 20 3
9505 2 1
9505 3 3
9505 18 1
9505 34 1
9506 5 1
9507 9 1
9508 18 12
9508 19 17
9508 20 1
9509 18 1
9510 1 2
9510 2 9
9510 3 12
9510 24 1
9510 31 1
9510 34 9
9511 17 1
9512 3 1
9512 21 4
9512 24 1
9513 23 1
9513 24 6
9514 18 1
9514 19 1
9514 26 1
9515 3 3
9515 10 1
9515 15 1
9515 16 1
9515 18 1
9515 24 1
9515 25 1
9516 4 6
9516 5 17
9516 12 1
9516 38 25
9517 5 1
9518 5 1
9519 7 1
9519 28 2
9520 5 1
9520 34 1
9521 14 1
9522 29 1
9523 18 1
9524 29 1
9525 10 1
9525 24 1
9525 29 2
9525 30 1
9526 24 1
9527 24 4
9527 34 1
9528 38 1
9529 12 3
9529 14 4
9529 38 1
9530 3 1
9530 18 24
9530 19 33
9530 20 15
9530 21 2
9530 22 1
9530 38 1
9531 31 1
9532 21 12
9532 22 6
9534 29 7
9535 11 1
9535 34 1
9536 22 1
9537 4 2
9537 5 18
9537 38 16
9538 7 8
9538 8 16
9539 3 1
9539 18 1
9540 2 1
9540 29 1
9541 26 2
9542 5 1
9543 9 1
9544 34 1
9545 3 1
9545 19 1
9545 21 1
9546 5 1
9546 14 1
9547 28 9
9548 2 1
9549 19 1
9550 7 1
9550 8 3
9550 18 1
9551 28 7
9552 38 1
9553 19 1
9554 15 1
9554 16 1
9554 17 1
9554 34 1
9555 5 1
9556 24 1
9557 22 1
9558 21 1
9559 2 1
9560 29 1
9561 7 1
9561 11 1
9561 17 1
9561 24 1
9562 4 1
9562 5 2
9562 38 1
9563 2 13
9563 3 16
9563 26 2
9563 34 12
9564 4 2
9564 5 2
9564 9 1
9564 11 2
9564 21 1
9564 38 8
9565 4 5
9565 5 30
9565 38 38
9566 2 4
9566 3 11
9566 20 1
9566 34 11
9567 9 1
9568 5 1
9569 29 1
9570 2 7
9570 3 20
9570 28 1
9570 34 16
9571 34 1
9572 22 1
9572 29 1
9572 31 7
9573 23 1
9573 24 11
9574 31 1
9575 12 4
9576 24 1
9577 3 1
9578 21 5
9578 22 3
9579 8 1
9579 9 1
9580 2 1
9580 3 2
9580 18 1
9580 34 2
9581 24 1
9581 31 9
9582 2 1
9582 7 2
9582 8 2
9582 22 2
9583 21 1
9584 15 1
9585 19 1
9586 3 1
9587 29 8
9588 31 7
9589 26 1
9590 22 1
9591 18 2
9591 19 1
9591 20 1
9592 19 1
9592 29 1
9593 34 1
9594 8 1
9594 10 1
9594 11 1
9594 18 1
9594 29 1
9595 9 10
9595 10 15
9595 11 14
9595 18 1
9595 34 1
9596 34 1
9597 16 1
9598 34 1
9599 29 14
9599 30 1
9600 3 1
9600 5 1
9600 18 1
9600 21 1
9600 30 1
9600 34 2
9601 4 1
9601 21 1
9601 38 1
9602 12 2
9603 2 6
9603 3 8
9603 29 5
9603 34 10
9604 3 2
9604 5 2
9604 24 1
9604 28 1
9604 31 2
9604 34 1
9604 38 1
9605 21 1
9606 9 1
9606 18 1
9606 24 1
9606 29 1
9606 38 1
9607 2 7
9607 3 10
9607 34 10
9608 9 1
9608 10 3
9608 11 3
9609 24 1
9609 28 2
9610 5 1
9610 21 1
9610 29 16
9610 30 1
9611 38 1
9612 31 18
9612 38 1
9613 3 2
9613 18 1
9614 12 1
9614 31 7
9615 26 1
9616 8 1
9617 5 1
9617 29 1
9618 18 5
9618 19 6
9618 20 2
9618 21 1
9619 38 1
9620 26 2
9621 7 1
9621 8 1
9621 14 1
9621 38 1
9622 22 1
9623 38 1
9624 16 1
9625 3 1
9625 19 1
9626 18 1
9626 34 1
9627 38 1
9628 7 1
9628 19 1
9628 22 1
9628 24 1
9629 21 1
9629 31 3
9630 9 1
9631 38 1
9632 9 1
9632 17 1
9632 38 1
9633 31 1
9634 8 2
9635 11 1
9635 12 1
9635 14 1
9636 19 1
9636 25 1
9636 26 19
9636 38 1
9637 26 1
9638 3 1
9638 29 1
9638 38 1
9639 2 1
9639 3 1
9639 5 2
9639 16 1
9639 24 1
9639 38 1
9640 2 1
9640 19 1
9640 20 1
9641 21 1
9642 21 1
9643 4 9
9643 5 20
9643 38 30
9644 34 1
9645 12 20
9645 13 1
9645 14 13
9646 23 1
9646 24 8
9646 34 1
9647 3 1
9648 2 1
9648 9 5
9648 10 10
9648 11 5
9649 21 1
9650 3 1
9651 31 8
9651 34 1
9652 23 1
9652 24 8
9653 28 1
9654 2 1
9654 29 22
9655 4 1
9655 5 2
9655 10 4
9655 18 1
9655 21 2
9655 24 1
9655 28 1
9655 29 1
9655 34 1
9655 38 1
9656 4 1
9656 5 1
9656 15 8
9656 17 6
9657 18 1
9658 2 1
9658 5 1
9658 19 1
9658 31 3
9659 29 5
9659 38 3
9660 34 1
9661 34 1
9662 18 24
9662 19 43
9662 20 9
9663 34 2
9664 24 1
9665 29 1
9666 24 1
9667 28 7
9668 16 1
9669 38 1
9670 26 1
9671 3 1
9671 21 13
9671 22 15
9672 29 1
9673 7 1
9674 15 1
9675 18 1
9676 2 4
9676 3 7
9676 34 7
9677 29 1
9678 5 1
9678 9 2
9678 17 1
9678 19 1
9678 21 1
9678 31 1
9679 5 1
9680 18 1
9681 19 4
9681 20 2
9682 29 14
9682 30 4
9683 29 19
9683 30 2
9684 24 1
9685 29 5
9686 8 1
9687 31 1
9688 18 2
9689 19 1
9689 38 1
9690 5 1
9690 18 1
9691 29 1
9692 7 2
9692 8 2
9692 18 3
9692 19 5
9693 20 1
9694 3 1
9694 15 1
9694 29 1
9694 34 1
9695 4 75
9695 5 450
9695 8 1
9695 22 1
9695 34 2
9695 38 436
9696 24 7
9697 29 1
9698 18 1
9698 21 1
9699 18 14
9699 19 10
9699 20 12
9699 29 1
9700 2 21
9700 3 30
9700 22 1
9700 34 35
9701 31 3
9702 3 1
9702 38 1
9703 34 1
9704 12 1
9705 2 1
9705 24 6
9706 19 1
9706 29 5
9707 12 1
9707 14 1
9708 5 1
9709 18 1
9710 18 1
9711 5 1
9712 2 1
9713 34 1
9714 4 2
9714 5 18
9714 38 17
9715 31 1
9716 24 1
9717 18 48
9717 19 61
9717 20 22
9718 4 4
9718 5 9
9718 23 1
9718 24 30
9718 38 8
9719 7 2
9719 8 6
9720 18 1
9720 29 28
9720 30 3
9721 7 1
9722 38 1
9723 8 1
9724 34 1
9725 2 1
9726 1 4
9726 2 74
9726 3 93
9726 7 1
9726 21 1
9726 34 93
9727 19 1
9727 38 1
9728 17 1
9729 18 1
9729 19 1
9730 3 1
9730 7 22
9730 8 34
9730 30 1
9730 38 1
9731 9 1
9732 34 1
9733 24 1
9734 21 4
9734 22 4
9735 12 3
9735 14 2
9736 24 3
9737 29 13
9737 30 3
9738 20 1
9739 9 3
9739 10 3
9739 11 4
9739 18 1
9740 21 1
9741 29 16
9742 26 1
9742 29 1
9743 5 1
9744 31 1
9745 5 1
9746 24 1
9747 38 1
9748 13 1
9748 38 1
9749 31 1
9750 22 2
9751 15 1
9752 3 1
9753 24 1
9754 18 29
9754 19 36
9754 20 15
9755 7 1
9755 29 1
9756 2 3
9756 3 2
9756 5 2
9756 8 1
9756 10 1
9756 15 1
9756 34 2
9756 38 1
9757 3 1
9758 38 1
9759 3 1
9760 38 1
9761 1 1
9761 2 11
9761 3 23
9761 34 23
9762 2 1
9763 26 2
9764 19 1
9765 5 23
9765 38 27
9766 2 3
9766 3 4
9766 34 4
9767 21 1
9768 3 1
9768 9 10
9768 10 27
9768 11 11
9769 4 3
9769 5 6
9769 12 1
9769 34 1
9769 38 5
9770 38 1
9771 3 2
9771 9 1
9771 24 5
9772 31 9
9773 34 1
9774 18 7
9774 19 8
9775 24 1
9776 5 1
9776 14 1
9777 3 1
9777 5 1
9777 16 1
9777 31 1
9777 34 1
9778 5 3
9779 21 22
9779 22 20
9780 12 1
9781 31 7
9782 5 5
9782 38 6
9783 10 1
9784 21 2
9784 22 2
9785 5 1
9786 34 1
9787 22 1
9787 28 3
9788 19 13
9788 20 9
9788 31 1
9788 34 2
9789 19 1
9790 31 1
9791 9 1
9792 24 1
9793 1 1
9793 2 6
9793 3 20
9793 34 39
9794 2 1
9795 34 1
9796 5 1
9796 14 1
9796 21 7
9796 22 8
9796 34 2
9796 38 1
9797 3 1
9798 18 1
9799 9 1
9800 3 1
9800 12 1
9800 18 1
9800 19 1
9800 26 1
9800 34 1
9801 2 1
9802 21 2
9803 29 15
9803 30 2
9804 29 22
9804 30 2
9804 38 1
9805 18 1
9805 28 1
9806 9 11
9806 10 18
9806 11 13
9806 12 1
9807 5 1
9808 21 1
9809 3 1
9809 4 1
9809 18 2
9809 21 1
9809 28 1
9810 12 1
9810 13 1
9811 29 14
9811 30 2
9812 3 2
9812 19 1
9812 20 1
9812 38 3
9813 21 1
9813 34 1
9814 2 1
9815 5 2
9816 10 1
9816 15 14
9816 16 4
9816 17 13
9817 19 1
9817 34 1
9818 34 1
9819 4 2
9819 5 5
9819 38 2
9820 24 1
9820 31 4
9821 4 14
9821 5 63
9821 38 66
9822 19 1
9823 18 8
9823 19 9
9823 20 2
9824 28 3
9825 5 1
9825 12 1
9825 14 1
9826 2 1
9826 19 1
9826 34 1
9827 2 1
9827 3 1
9828 29 3
9829 31 2
9830 18 1
9830 19 1
9830 24 1
9831 10 1
9831 18 1
9831 19 1
9831 22 1
9831 24 1
9832 23 4
9832 24 33
9833 11 1
9833 21 1
9834 31 1
9835 4 3
9835 5 11
9835 38 12
9836 21 1
9837 2 17
9837 3 20
9837 34 25
9838 4 1
9839 24 3
9840 31 1
9841 3 2
9841 34 2
9842 17 3
9843 12 9
9843 14 5
9844 7 6
9844 8 10
9845 38 1
9846 4 2
9846 5 7
9846 12 1
9846 21 3
9846 22 5
9846 38 8
9847 20 1
9848 31 4
9849 15 25
9849 16 20
9849 17 17
9850 2 4
9850 3 5
9850 15 1
9850 28 1
9850 34 4
9851 34 1
9852 24 1
9853 31 4
9854 3 1
9854 28 6
9855 19 1
9856 9 1
9857 2 11
9857 3 22
9857 34 20
9858 8 1
9858 15 2
9859 38 1
9860 2 1
9861 17 1
9862 34 1
9863 31 1
9864 3 2
9864 21 1
9865 31 7
9866 11 1
9867 21 1
9867 38 1
9868 19 1
9869 4 5
9869 5 27
9869 38 24
9870 20 1
9871 5 1
9872 12 39
9872 13 1
9872 14 29
9872 15 1
9873 4 1
9874 4 1
9874 9 6
9874 10 5
9874 11 3
9874 24 2
9874 31 1
9874 38 2
9875 5 1
9876 8 1
9876 34 1
9877 3 1
9877 28 6
9878 1 1
9878 2 20
9878 3 37
9878 21 2
9878 29 14
9878 34 34
9879 3 1
9880 12 3
9880 14 2
9881 5 1
9881 23 1
9881 24 19
9881 34 1
9882 19 1
9882 24 3
9883 28 2
9884 4 1
9885 10 1
9885 18 1
9885 19 2
9885 21 1
9885 22 1
9885 29 1
9886 18 1
9886 19 1
9886 20 1
9887 31 3
9888 38 1
9889 29 9
9889 30 1
9890 24 1
9891 12 1
9891 14 1
9892 19 1
9892 28 2
9893 19 1
9894 38 1
9895 21 18
9895 22 24
9896 38 1
9897 38 1
9898 5 1
9898 24 1
9899 5 1
9900 31 9
9901 2 1
9901 3 2
9901 4 1
9901 8 2
9901 10 1
9901 12 1
9901 14 1
9901 18 3
9901 24 2
9901 28 1
9901 31 2
9901 34 5
9901 38 3
9902 34 1
9903 24 2
9904 24 13
9905 31 12
9905 32 1
9905 34 1
9906 5 1
9907 29 1
9908 12 7
9908 14 7
9909 22 1
9910 28 2
9911 8 1
9912 19 1
9913 24 1
9914 21 1
9915 34 1
9916 15 1
9916 16 1
9917 5 5
9917 38 6
9918 9 1
9918 31 1
9919 21 1
9920 29 11
9920 30 1
9921 2 1
9922 38 1
9923 34 1
9924 5 1
9925 10 1
9926 5 1
9926 21 15
9926 22 8
9926 24 1
9927 9 1
9927 10 1
9928 28 3
9928 31 1
9928 38 1
9929 16 1
9930 18 1
9930 19 1
9930 26 1
9930 31 1
9931 38 1
9932 8 1
9932 38 2
9933 24 1
9933 29 5
9933 30 1
9934 5 1
9935 34 1
9936 9 1
9937 8 1
9938 21 12
9938 22 5
9939 38 1
9940 3 1
9940 24 2
9941 31 6
9942 5 4
9943 22 1
9944 31 1
9944 34 1
9945 38 1
9946 19 1
9946 28 3
9947 19 1
9948 12 1
9949 24 1
9950 2 1
9950 3 3
9950 18 1
9950 19 1
9950 20 1
9950 21 1
9950 28 2
9950 34 1
9950 38 1
9951 29 21
9951 30 1
9952 3 1
9952 31 6
9952 38 1
9953 12 9
9953 14 7
9954 18 1
9954 24 2
9955 18 1
9955 19 1
9955 34 1
9956 5 3
9956 12 1
9956 18 20
9956 19 23
9956 20 3
9956 31 33
9956 38 6
9957 18 1
9958 21 2
9959 28 3
9959 34 1
9960 4 1
9960 29 9
9960 30 2
9961 9 1
9962 34 1
9963 11 1
9963 16 1
9963 29 21
9963 30 2
9964 21 1
9965 18 5
9965 19 22
9965 20 10
9966 31 1
9966 34 1
9966 38 1
9967 29 27
9967 30 4
9967 38 1
9968 24 1
9969 2 1
9970 10 1
9970 19 1
9970 24 1
9970 29 1
9970 31 1
9970 34 1
9971 24 1
9972 19 1
9973 1 1
9973 2 6
9973 3 12
9973 34 21
9974 12 1
9975 2 1
9975 3 1
9975 5 3
9975 18 1
9975 19 2
9975 24 1
9975 28 1
9975 31 1
9975 34 1
9976 3 1
9976 24 1
9976 29 1
9977 38 1
9978 29 4
9978 30 1
9979 12 1
9979 19 1
9979 22 1
9980 3 2
9980 9 15
9980 10 18
9980 11 8
9980 34 1
9981 12 39
9981 14 23
9981 18 1
9981 34 1
9982 34 1
9983 21 1
9984 24 1
9985 18 1
9986 34 1
9987 2 1
9987 14 1
9987 22 2
9988 9 7
9988 10 21
9988 11 7
9988 38 1
9989 26 1
9990 19 3
9990 20 2
9991 24 1
9992 26 2
9993 31 2
9994 1 1
9994 2 25
9994 3 34
9994 34 26
9995 12 1
9996 3 2
9996 5 4
9996 8 1
9996 11 1
9996 18 1
9996 24 3
9996 38 3
9997 24 19
9998 1 1
9998 2 17
9998 3 26
9998 34 29
9999 5 1
10000 2 3
10000 3 10
10000 24 1
10000 34 8
10001 29 1
10002 19 1
10003 4 1
10003 5 1
10003 7 1
10003 8 1
10003 12 1
10003 14 1
10003 15 1
10003 19 1
10003 20 1
10003 21 1
10003 24 1
10003 38 2
10004 5 1
10005 2 2
10005 3 2
10005 5 2
10005 10 1
10005 12 1
10005 18 1
10005 34 1
10005 38 3
10006 2 1
10007 5 1
10008 3 2
10008 29 1
10008 34 2
10010 29 1
10011 38 1
10012 5 1
10013 29 1
10014 31 1
10015 24 1
10016 2 1
10017 15 1
10018 31 1
10019 12 1
10020 29 5
10021 24 2
10021 29 1
10022 17 1
10023 38 1
10024 21 1
10025 9 1
10025 10 6
10025 11 7
10025 12 3
10025 14 1
10026 4 8
10026 5 43
10026 10 1
10026 38 52
10027 19 1
10028 24 8
10028 34 1
10029 5 1
10030 38 2
10031 38 1
10032 22 1
10032 31 7
10033 24 9
10034 3 1
10035 3 4
10035 10 1
10035 20 1
10035 24 2
10035 38 1
10036 3 1
10037 18 7
10037 19 15
10037 20 4
10038 2 1
10038 29 2
10038 31 1
10039 24 6
10040 24 1
10041 3 1
10042 3 1
10042 5 1
10042 7 1
10042 12 1
10042 14 1
10042 24 1
10042 31 1
10042 34 2
10043 28 2
10044 3 4
10044 5 2
10044 31 1
10044 34 1
10044 38 2
10045 15 1
10045 24 3
10046 3 1
10046 5 1
10046 18 1
10047 18 1
10048 2 1
10049 5 1
10050 3 1
10050 18 1
10051 12 20
10051 14 16
10052 22 1
10053 3 1
10053 5 2
10053 8 1
10053 9 1
10053 11 1
10053 14 1
10053 18 2
10053 34 3
10053 38 3
10054 34 1
10055 3 1
10055 5 1
10055 38 1
10056 3 1
10057 19 1
10058 34 1
10059 3 1
10059 24 3
10060 28 1
10061 9 1
10061 12 1
10062 3 1
10063 4 1
10063 5 1
10064 38 2
10065 34 1
10066 7 11
10066 8 12
10067 34 1
10068 38 1
10069 38 1
10070 28 6
10071 4 2
10071 5 18
10071 38 22
10072 29 1
10073 3 2
10073 5 3
10073 12 1
10073 17 1
10073 18 2
10073 19 1
10073 20 1
10073 21 2
10073 22 1
10073 24 2
10073 29 1
10073 34 1
10073 38 1
10074 12 2
10074 14 3
10074 29 1
10075 24 8
10076 29 1
10077 2 1
10077 5 1
10077 11 1
10077 17 1
10077 18 1
10077 24 4
10077 25 1
10077 38 2
10078 5 1
10078 38 1
10079 3 1
10079 19 1
10079 31 1
10080 29 15
10080 30 1
10081 34 1
10082 26 1
10083 2 1
10083 11 1
10084 10 1
10084 11 1
10085 5 1
10085 38 3
10086 12 4
10086 14 1
10087 2 1
10087 3 2
10087 10 1
10087 14 1
10087 16 1
10087 31 1
10087 34 1
10087 38 3
10088 29 1
10089 21 14
10089 22 9
10090 8 1
10090 24 1
10090 31 1
10091 11 1
10092 3 1
10093 24 1
10094 5 1
10094 9 1
10094 10 1
10094 11 4
10095 24 3
10096 16 1
10097 9 5
10097 10 18
10097 11 5
10098 34 1
10099 34 1
10100 12 10
10100 13 1
10100 14 4
10101 3 1
10101 18 4
10101 19 6
10101 20 4
10101 38 1
10102 31 1
10103 5 1
10103 21 1
10103 38 2
10104 29 1
10105 2 1
10106 19 1
10107 31 4
10108 2 14
10108 3 40
10108 22 1
10108 34 38
10109 25 1
10110 3 1
10110 11 1
10110 18 1
10110 21 1
10110 34 1
10110 38 2
10111 3 1
10111 31 1
10111 38 1
10112 28 3
10113 8 2
10113 28 1
10114 3 1
10114 19 1
10115 5 1
10115 38 1
10116 38 1
10117 18 10
10117 19 7
10117 20 10
10118 18 1
10119 19 1
10120 12 4
10120 14 3
10120 38 1
10121 21 1
10122 20 1
10122 24 1
10123 21 1
10124 3 1
10124 29 1
10124 34 1
10124 38 1
10125 3 1
10126 31 3
10127 14 1
10128 12 59
10128 13 2
10128 14 33
10128 29 1
10129 21 1
10130 5 1
10131 31 14
10132 38 1
10133 3 1
10133 18 1
10133 19 7
10133 20 2
10134 3 1
10134 14 1
10135 2 3
10135 3 11
10135 24 2
10135 34 8
10136 18 7
10136 19 6
10136 20 6
10137 17 1
10138 8 1
10139 4 10
10139 5 56
10139 14 1
10139 38 57
10140 4 4
10140 5 15
10140 38 10
10141 15 2
10141 17 1
10141 29 1
10142 11 1
10142 12 1
10143 11 1
10143 19 1
10144 5 1
10144 9 1
10144 29 1
10144 38 1
10145 3 1
10145 4 1
10145 19 2
10146 5 1
10147 5 1
10148 34 1
10149 11 1
10150 29 1
10151 34 1
10152 3 1
10153 8 1
10153 21 1
10153 24 2
10153 28 1
10153 29 1
10154 3 1
10155 29 1
10156 34 1
10157 2 1
10157 34 1
10158 3 2
10158 34 1
10159 34 1
10160 19 1
10161 2 1
10162 18 20
10162 19 32
10162 20 6
10163 12 1
10164 10 1
10164 14 1
10165 7 1
10166 19 1
10167 2 1
10168 14 1
10169 4 3
10169 5 6
10169 38 13
10170 15 1
10170 24 1
10170 29 4
10170 31 1
10171 2 1
10172 29 1
10173 9 1
10173 14 1
10173 15 1
10173 29 1
10173 31 1
10174 4 1
10175 18 1
10175 22 1
10176 29 2
10177 9 1
10177 31 1
10178 16 1
10179 34 2
10180 2 2
10180 3 8
10180 29 1
10180 34 7
10181 3 1
10181 31 13
10182 5 1
10183 29 1
10184 34 1
10185 31 15
10185 38 1
10186 12 1
10186 24 10
10187 18 10
10187 19 22
10187 20 5
10188 5 1
10188 7 1
10188 18 16
10188 19 26
10188 20 12
10188 21 1
10188 38 1
10189 3 1
10190 5 1
10191 21 1
10192 3 1
10193 19 1
10194 20 1
10195 15 1
10195 24 1
10196 3 1
10197 29 10
10197 30 2
10198 7 1
10198 8 2
10199 12 7
10200 24 2
10201 8 8
10202 2 2
10203 29 1
10204 2 2
10204 3 1
10204 10 1
10205 25 2
10205 26 7
10206 5 1
10207 18 20
10207 19 21
10207 20 12
10207 38 1
10208 3 1
10209 2 2
10209 5 2
10209 10 3
10209 12 2
10209 19 4
10209 24 3
10209 29 2
10209 34 1
10209 38 1
10210 3 1
10211 5 1
10211 38 1
10212 2 28
10212 3 50
10212 34 53
10213 3 1
10214 3 1
10215 4 1
10216 18 1
10216 19 2
10216 20 1
10217 24 1
10218 22 1
10219 3 1
10220 12 1
10221 2 16
10221 3 23
10221 34 22
10222 29 1
10223 34 1
10224 29 16
10224 30 1
10225 2 3
10225 3 5
10225 34 8
10226 34 1
10227 3 1
10228 8 1
10228 24 14
10228 31 1
10229 18 16
10229 19 16
10229 20 12
10230 3 1
10231 29 1
10232 3 1
10233 38 1
10234 10 1
10235 1 1
10235 2 13
10235 3 63
10235 34 54
10236 12 1
10236 38 1
10237 1 1
10237 2 20
10237 3 27
10237 34 17
10238 24 1
10239 3 1
10240 9 3
10240 10 10
10240 11 6
10240 19 1
10240 29 6
10240 31 1
10240 34 1
10241 17 1
10241 26 1
10242 10 1
10242 34 1
10242 38 1
10243 4 1
10244 31 2
10245 22 1
10246 3 1
10246 31 5
10247 19 1
10248 26 2
10248 29 1
10249 29 10
10249 30 1
10250 22 1
10251 20 1
10252 25 1
10252 26 4
10253 24 1
10254 29 1
10254 30 1
10255 28 4
10255 31 1
10256 21 38
10256 22 20
10257 10 1
10257 11 2
10258 9 1
10259 15 1
10260 38 1
10261 5 1
10261 15 1
10262 24 1
10263 7 1
10263 20 1
10264 34 2
10265 34 1
10266 24 1
10267 3 1
10268 3 1
10269 5 1
10270 19 1
10271 38 1
10272 20 1
10273 31 3
10274 18 1
10274 28 1
10274 34 1
10275 29 6
10275 30 1
10276 20 1
10276 24 1
10276 27 1
10276 28 8
10277 28 1
10278 8 1
10279 19 1
10280 24 1
10280 34 1
10281 26 4
10282 24 4
10283 29 1
10284 5 2
10284 38 1
10285 3 1
10286 5 1
10287 16 1
10288 21 3
10288 22 3
10289 34 1
10290 10 1
10291 38 1
10292 29 8
10292 34 1
10293 1 1
10293 2 26
10293 3 30
10293 16 1
10293 34 32
10294 7 3
10294 8 9
10295 12 1
10296 21 1
10297 21 27
10297 22 13
10298 21 1
10299 29 1
10300 12 30
10300 13 1
10300 14 16
10300 34 2
10301 18 26
10301 19 29
10301 20 10
10302 13 1
10303 2 1
10304 15 4
10304 16 4
10304 17 1
10304 34 1
10305 29 13
10306 17 1
10307 21 30
10307 22 17
10308 18 1
10309 12 1
10310 23 1
10310 24 7
10311 34 1
10312 24 1
10312 29 34
10312 30 1
10313 3 1
10314 34 1
10315 1 1
10315 2 5
10315 3 11
10315 34 20
10316 2 1
10316 9 1
10316 24 1
10316 29 1
10316 34 2
10316 38 1
10317 21 1
10318 2 1
10318 24 1
10319 5 2
10320 5 1
10321 34 1
10322 10 1
10322 31 23
10323 17 1
10324 5 1
10325 17 1
10326 3 1
10326 5 1
10326 15 13
10326 16 19
10326 17 14
10327 2 1
10328 18 1
10328 28 1
10328 29 1
10329 24 1
10330 3 1
10330 31 1
10331 11 1
10332 2 1
10333 5 1
10333 29 18
10334 3 1
10334 18 1
10334 31 2
10335 14 1
10336 3 1
10336 7 1
10336 14 1
10336 31 1
10337 15 3
10337 16 3
10337 17 1
10338 10 1
10339 21 1
10340 5 1
10340 28 7
10341 34 1
10342 9 1
10342 10 7
10342 11 4
10343 3 1
10344 4 11
10344 5 45
10344 18 1
10344 20 2
10344 38 55
10345 12 15
10345 14 22
10346 14 1
10346 34 1
10347 1 4
10347 2 53
10347 3 44
10347 34 69
10348 5 2
10348 34 1
10348 38 1
10349 29 1
10350 28 10
10350 38 1
10351 18 47
10352 29 9
10353 14 1
10354 4 6
10354 5 48
10354 38 46
10355 18 1
10356 7 1
10356 8 5
10356 18 1
10356 19 1
10357 2 5
10357 3 14
10357 34 10
10358 38 1
10359 24 3
10359 28 2
10360 7 18
10360 8 21
10361 1 1
10361 2 5
10361 3 11
10361 34 10
10362 2 1
10362 3 2
10362 11 1
10363 2 1
10363 3 1
10363 4 1
10363 5 1
10363 8 1
10363 14 1
10363 18 2
10363 19 1
10363 34 2
10364 3 1
10365 19 1
10366 4 1
10366 5 21
10366 21 1
10366 31 1
10366 34 1
10366 38 18
10367 3 1
10367 5 1
10367 8 1
10368 34 1
10369 3 1
10369 14 1
10370 4 21
10370 5 76
10370 38 100
10371 31 1
10372 24 5
10373 5 1
10374 38 1
10375 15 1
10376 18 1
10377 4 1
10377 34 1
10378 28 1
10379 5 1
10380 34 1
10381 29 1
10382 14 1
10382 24 18
10383 10 1
10383 12 1
10384 34 1
10385 2 1
10386 4 1
10386 5 7
10386 38 9
10387 38 1
10388 4 8
10388 5 46
10388 38 53
10389 2 1
10390 2 4
10390 3 13
10390 34 17
10391 18 1
10391 34 1
10392 21 1
10393 3 1
10393 14 1
10393 20 1
10393 21 1
10393 29 1
10393 38 3
10394 21 1
10395 24 1
10396 11 1
10397 9 62
10397 11 78
10398 5 2
10399 34 1
10400 28 1
10401 2 2
10401 4 3
10401 5 9
10401 18 1
10401 38 15
10402 20 1
10403 38 1
10404 18 1
10404 29 13
10404 30 3
10404 31 2
10405 3 1
10405 5 1
10405 10 1
10405 15 1
10405 16 1
10405 18 2
10405 19 1
10405 34 1
10405 38 1
10406 3 1
10406 29 25
10406 30 2
10406 34 1
10406 38 1
10407 5 1
10407 17 2
10407 38 1
10408 18 1
10409 5 3
10409 38 5
10410 4 3
10410 5 14
10410 38 26
10411 3 1
10412 2 1
10413 3 1
10413 19 1
10413 20 1
10413 21 5
10413 22 3
10413 38 1
10414 24 1
10415 34 1
10416 9 1
10416 10 1
10416 14 1
10416 26 8
10417 4 6
10417 5 26
10417 38 48
10418 21 1
10419 18 1
10419 25 1
10419 26 10
10420 31 5
10421 18 1
10422 4 1
10423 2 1
10424 8 1
10424 19 1
10425 2 1
10425 12 2
10425 14 2
10425 18 1
10426 18 4
10426 19 9
10426 20 3
10427 23 1
10427 24 7
10428 38 1
10429 2 4
10429 3 5
10429 26 2
10429 29 1
10429 34 6
10430 24 10
10431 2 10
10431 3 36
10431 34 40
10432 31 1
10433 24 1
10434 21 1
10435 14 1
10436 4 1
10436 5 21
10436 38 27
10437 5 1
10437 12 4
10437 14 2
10438 4 1
10439 4 6
10439 5 32
10439 14 1
10439 38 36
10440 2 3
10440 3 4
10440 29 8
10440 34 5
10441 31 1
10442 8 1
10443 21 1
10444 2 1
10445 19 1
10446 24 5
10447 1 1
10447 2 2
10447 3 1
10447 12 1
10447 20 1
10447 24 2
10447 26 1
10447 29 1
10447 34 3
10448 2 1
10448 9 1
10448 10 3
10448 11 5
10449 28 1
10450 31 1
10451 21 1
10452 4 1
10452 5 4
10452 38 1
10453 2 1
10453 5 1
10453 10 1
10453 19 1
10453 24 1
10453 29 1
10453 31 1
10453 38 1
10454 7 5
10454 8 9
10455 11 1
10456 3 1
10456 5 1
10457 16 1
10458 4 2
10458 5 4
10458 38 7
10459 9 1
10460 2 1
10460 10 1
10460 17 1
10460 34 1
10461 38 1
10462 4 4
10462 5 5
10462 24 1
10462 38 8
10463 24 1
10464 12 1
10465 18 1
10466 38 2
10467 18 3
10467 19 2
10467 20 1
10468 15 1
10469 2 7
10469 3 6
10469 34 6
10470 29 6
10471 10 1
10472 5 1
10473 12 1
10474 3 1
10474 26 1
10474 29 1
10474 30 2
10475 28 1
10476 21 1
10477 3 1
10478 3 1
10478 38 1
10479 24 1
10480 19 1
10481 7 6
10481 8 3
10482 24 1
10483 34 1
10484 38 1
10485 38 1
10486 21 1
10487 38 1
10488 5 2
10488 38 1
10489 21 1
10490 29 2
10491 22 1
10492 4 1
10493 4 1
10493 5 3
10493 24 1
10493 38 5
10494 12 7
10494 14 6
10495 24 4
10496 29 1
10497 21 1
10497 34 2
10498 12 1
10499 24 6
10500 21 5
10500 22 3
10501 2 1
10502 3 2
10502 11 1
10502 24 1
10502 34 1
10503 38 1
10504 24 4
10505 12 12
10505 13 1
10505 14 5
10506 8 1
10506 22 1
10506 29 1
10507 38 1
10508 29 1
10508 31 9
10508 34 1
10509 20 2
10510 22 1
10511 34 1
10512 31 1
10513 16 1
10513 29 1
10514 24 1
10514 38 1
10515 21 24
10515 22 10
10515 30 1
10516 1 1
10516 2 6
10516 3 6
10516 21 1
10516 34 10
10517 19 1
10518 34 1
10519 2 1
10519 18 1
10519 19 1
10519 20 2
10519 22 1
10519 24 1
10519 29 1
10519 31 1
10519 38 1
10520 11 1
10521 1 1
10521 2 5
10521 3 7
10521 34 8
10522 10 1
10522 24 1
10523 2 1
10523 7 1
10524 14 1
10524 20 1
10524 29 1
10525 5 1
10525 18 1
10525 29 1
10525 38 1
10526 1 1
10526 2 7
10526 3 32
10526 4 1
10526 34 17
10527 34 1
10528 2 2
10529 31 31
10529 38 1
10530 5 1
10530 28 1
10531 12 1
10531 21 1
10531 28 17
10532 3 1
10532 24 1
10533 34 1
10534 7 2
10534 8 2
10534 24 1
10534 30 1
10535 19 1
10536 2 13
10536 3 27
10536 15 1
10536 34 22
10536 38 1
10537 21 1
10538 3 2
10538 11 1
10538 19 1
10538 24 1
10538 26 1
10538 34 1
10539 34 1
10540 11 1
10541 18 1
10542 20 1
10542 28 1
10543 34 1
10544 24 8
10545 24 1
10546 12 1
10547 2 11
10547 3 42
10547 29 4
10547 30 2
10547 34 30
10548 11 27
10548 38 1
10549 4 2
10549 5 9
10549 38 1
10550 3 1
10550 8 1
10551 4 3
10551 5 29
10551 34 1
10551 38 35
10552 15 1
10552 24 1
10553 3 1
10553 9 28
10553 10 43
10553 11 21
10553 12 7
10553 14 4
10554 5 8
10554 38 9
10555 4 1
10555 38 2
10556 28 2
10557 8 1
10557 28 1
10558 3 2
10558 7 2
10558 10 2
10558 11 1
10558 12 1
10558 14 1
10558 16 1
10558 19 2
10558 22 1
10558 24 1
10558 31 1
10558 34 5
10558 38 1
10559 2 8
10559 3 29
10559 34 32
10560 3 1
10560 12 1
10560 24 1
10560 26 1
10560 29 1
10560 34 1
10561 24 21
10562 24 1
10563 22 1
10564 38 2
10565 15 3
10565 22 1
10565 34 1
10566 3 1
10567 15 1
10567 34 1
10568 18 1
10568 19 2
10568 34 1
10569 19 1
10570 3 2
10570 23 1
10570 24 42
10571 3 1
10572 34 1
10573 24 1
10574 24 1
10575 11 50
10576 12 1
10577 5 5
10577 8 2
10577 9 1
10577 10 3
10577 11 2
10577 12 2
10577 22 1
10577 24 1
10577 34 2
10577 38 3
10578 21 1
10578 22 1
10579 4 2
10579 12 1
10579 18 1
10579 24 1
10579 29 2
10579 38 1
10580 8 2
10581 26 1
10582 15 1
10583 5 2
10584 19 1
10584 22 1
10585 18 1
10586 18 14
10586 19 12
10586 31 1
10587 24 1
10588 28 1
10589 8 1
10589 18 1
10589 19 2
10590 26 4
10590 29 18
10591 19 1
10592 12 1
10592 24 1
10593 3 1
10593 19 1
10594 4 3
10594 5 6
10594 8 1
10594 38 16
10595 31 10
10596 12 1
10597 34 1
10598 3 1
10599 28 1
10600 7 5
10600 8 13
10601 28 2
10602 34 2
10603 2 1
10603 5 2
10603 8 1
10603 18 2
10604 21 1
10605 3 1
10605 15 11
10605 16 5
10605 17 6
10606 7 4
10606 8 4
10606 18 2
10606 19 3
10606 20 2
10607 3 1
10607 30 1
10608 2 1
10608 31 3
10609 12 1
10610 20 1
10610 38 1
10611 24 18
10612 34 1
10613 19 1
10614 15 1
10615 3 1
10616 19 2
10617 5 1
10618 3 1
10619 4 1
10619 12 4
10619 14 1
10620 12 4
10620 13 1
10620 14 3
10620 18 1
10621 12 1
10622 2 1
10622 9 2
10622 14 1
10622 24 20
10622 38 1
10623 9 1
10623 10 1
10624 34 1
10625 31 1
10626 34 2
10627 3 1
10628 12 1
10629 2 2
10629 3 1
10629 4 2
10629 5 1
10629 11 1
10629 14 1
10629 18 2
10629 24 1
10629 38 1
10630 3 1
10630 19 1
10630 20 2
10631 11 1
10632 2 1
10633 2 4
10633 3 8
10633 34 6
10634 2 1
10634 7 1
10634 9 1
10634 15 14
10634 16 9
10634 17 14
10634 18 1
10634 38 1
10635 7 1
10635 29 1
10636 2 8
10636 3 12
10636 8 1
10636 19 1
10636 34 21
10637 9 2
10637 10 6
10637 11 5
10638 22 1
10639 19 1
10639 29 3
10640 17 1
10641 12 2
10641 14 1
10642 5 1
10642 29 42
10642 30 3
10642 31 3
10642 38 1
10643 18 1
10643 29 15
10643 30 1
10644 12 8
10644 14 3
10645 5 1
10646 3 1
10647 20 1
10648 28 1
10649 24 10
10650 24 1
10651 7 1
10651 10 1
10652 3 1
10652 31 3
10653 12 1
10653 38 2
10654 2 1
10654 4 1
10654 14 1
10654 19 1
10655 24 16
10655 26 1
10656 5 1
10657 4 3
10657 5 15
10657 38 17
10658 5 1
10659 34 1
10660 7 7
10660 8 18
10660 16 1
10660 17 2
10661 5 1
10662 18 1
10662 28 6
10663 24 1
10663 29 22
10663 30 2
10664 2 1
10665 29 1
10666 1 1
10666 2 8
10666 3 13
10666 22 1
10666 34 15
10667 4 1
10667 5 5
10667 38 8
10668 22 1
10669 31 1
10670 15 1
10671 2 1
10671 17 1
10672 22 1
10673 29 1
10674 19 1
10675 34 1
10676 2 1
10676 29 5
10677 24 1
10678 10 1
10679 2 1
10680 2 1
10680 14 1
10680 19 1
10680 38 2
10681 34 1
10682 14 1
10683 2 1
10684 8 1
10685 15 1
10686 24 1
10687 1 1
10687 2 5
10687 3 16
10687 17 1
10687 34 35
10688 29 12
10688 30 1
10689 20 1
10690 26 1
10691 22 1
10692 18 23
10692 19 36
10692 20 18
10693 15 4
10693 16 2
10693 17 5
10694 4 3
10694 5 10
10694 38 9
10695 3 1
10695 12 1
10695 29 1
10695 31 1
10696 17 1
10697 18 1
10697 31 11
10698 3 1
10699 3 1
10700 19 1
10701 2 1
10701 5 1
10701 18 1
10702 18 1
10702 29 16
10703 5 1
10703 15 4
10703 16 1
10703 17 7
10703 24 13
10703 29 1
10703 38 1
10704 24 1
10704 29 11
10704 34 1
10705 2 1
10705 12 11
10705 14 4
10706 3 1
10707 2 1
10707 3 4
10707 10 1
10707 14 1
10707 16 1
10707 18 1
10707 19 1
10707 22 1
10707 34 1
10707 38 2
10708 12 11
10708 13 1
10708 14 4
10709 30 1
10710 30 1
10711 10 1
10711 12 27
10711 14 21
10711 19 1
10711 31 1
10711 34 2
10712 34 2
10713 24 1
10714 31 9
10715 2 1
10715 3 2
10716 19 1
10717 24 1
10717 38 1
10718 7 1
10718 21 1
10719 31 4
10720 24 1
10721 2 1
10721 7 1
10721 12 13
10721 14 3
10722 2 8
10722 3 24
10722 34 30
10723 17 1
10724 34 1
10725 34 1
10726 31 11
10727 29 1
10728 15 1
10729 38 1
10730 3 1
10731 2 1
10732 4 1
10732 5 16
10732 12 1
10732 38 9
10733 29 1
10734 11 1
10735 4 1
10736 29 1
10737 29 2
10738 21 1
10738 22 1
10739 12 1
10739 14 1
10740 5 1
10740 18 1
10740 19 4
10740 34 1
10741 5 1
10742 29 6
10743 18 1
10744 29 1
10745 2 1
10746 18 1
10746 20 1
10747 2 1
10747 5 1
10747 12 9
10747 14 4
10748 2 1
10748 3 1
10748 4 4
10748 5 47
10748 38 43
10749 31 1
10750 21 1
10751 29 1
10752 28 3
10753 29 1
10754 12 1
10754 29 1
10755 3 1
10755 29 1
10756 12 10
10756 14 3
10757 7 1
10758 34 1
10759 31 19
10760 2 2
10760 3 15
10760 22 1
10760 28 1
10760 34 3
10761 7 8
10761 8 28
10761 24 2
10762 24 16
10763 22 1
10763 29 1
10764 15 1
10764 24 6
10764 26 1
10765 21 39
10765 22 43
10766 4 1
10767 21 1
10767 31 1
10768 12 1
10769 3 1
10770 14 1
10770 31 15
10770 33 1
10771 21 1
10772 18 1
10772 23 1
10772 24 15
10772 31 8
10772 33 1
10772 38 1
10773 1 1
10773 2 11
10773 3 25
10773 18 1
10773 34 31
10774 38 1
10775 2 1
10776 2 4
10776 3 11
10776 34 5
10777 4 11
10777 5 65
10777 38 71
10778 4 1
10779 17 2
10780 11 1
10780 17 1
10780 28 1
10780 34 4
10781 3 1
10782 5 1
10782 12 2
10782 14 2
10783 3 1
10783 38 1
10784 7 14
10784 8 19
10785 4 2
10785 5 19
10785 38 24
10786 9 1
10787 18 1
10787 21 5
10787 22 3
10787 29 1
10788 3 1
10789 29 13
10790 38 1
10791 18 4
10791 19 7
10791 20 2
10791 24 1
10792 18 1
10792 29 1
10793 3 1
10793 12 21
10793 13 1
10793 14 8
10794 34 1
10795 9 1
10795 10 3
10796 23 2
10796 24 31
10796 34 1
10797 24 27
10797 34 1
10798 18 9
10798 19 10
10798 20 3
10799 9 3
10799 11 1
10800 5 1
10801 2 4
10801 3 7
10801 34 2
10802 5 3
10802 10 1
10802 22 1
10803 12 1
10803 28 2
10804 34 1
10805 8 1
10805 21 1
10806 34 1
10807 19 1
10808 2 1
10808 12 1
10809 11 3
10810 16 1
10811 3 1
10811 19 1
10812 31 7
10813 12 1
10813 18 15
10813 19 10
10813 20 3
10814 29 6
10814 30 1
10814 38 1
10815 3 1
10816 3 1
10816 34 1
10817 38 1
10818 4 3
10818 5 12
10818 24 4
10818 38 10
10819 24 1
10820 5 1
10820 21 1
10821 17 1
10822 17 1
10823 3 1
10823 31 1
10824 4 1
10825 29 16
10825 34 1
10826 3 1
10826 18 1
10827 2 9
10827 3 12
10827 21 1
10827 34 14
10828 12 1
10828 24 4
10828 29 1
10828 38 5
10829 3 1
10830 3 1
10831 24 1
10832 19 1
10833 5 1
10833 19 1
10834 3 1
10834 5 1
10834 9 1
10834 18 2
10834 21 1
10834 24 1
10834 29 3
10834 31 2
10834 34 3
10834 38 1
10835 3 1
10836 34 1
10837 18 1
10837 29 12
10837 30 1
10838 4 1
10838 5 1
10838 29 1
10838 38 1
10839 9 1
10840 18 6
10840 19 8
10841 29 17
10841 30 2
10842 2 1
10843 24 1
10844 15 19
10844 16 15
10844 17 23
10844 24 1
10845 18 22
10845 19 20
10845 20 7
10846 25 1
10847 34 1
10848 15 4
10848 16 1
10848 17 1
10849 14 1
10850 2 13
10850 3 15
10850 21 1
10850 29 1
10850 34 19
10851 3 1
10851 4 2
10851 5 7
10851 38 13
10852 21 10
10852 22 13
10852 38 1
10853 3 1
10853 14 1
10854 3 1
10854 5 2
10854 18 1
10854 19 1
10854 34 2
10855 20 1
10856 34 1
10857 16 1
10857 19 1
10858 2 1
10858 3 1
10858 5 2
10858 19 2
10858 24 3
10858 29 2
10858 31 3
10858 34 4
10859 3 3
10859 34 1
10860 2 9
10860 3 9
10860 34 7
10861 29 1
10862 31 2
10863 21 8
10863 22 11
10864 4 6
10864 5 32
10864 9 1
10864 38 28
10865 12 1
10866 31 17
10867 23 1
10867 24 13
10868 34 1
10869 3 1
10870 29 1
10871 19 1
10872 10 1
10872 11 2
10872 12 1
10873 19 1
10874 26 2
10874 31 1
10874 38 1
10875 18 32
10875 19 47
10875 20 19
10875 29 1
10876 19 1
10877 38 1
10878 24 1
10879 7 2
10879 8 4
10879 12 1
10879 18 3
10879 19 7
10880 19 1
10880 24 1
10881 31 27
10882 2 1
10883 34 1
10884 18 1
10884 21 6
10884 22 5
10885 19 1
10886 3 1
10887 4 1
10888 29 9
10888 34 1
10889 21 1
10889 22 2
10890 12 1
10891 29 1
10892 3 1
10892 20 1
10892 28 6
10893 5 3
10893 38 2
10894 3 1
10895 22 1
10896 29 1
10897 2 1
10897 3 1
10897 4 1
10897 12 1
10897 19 3
10897 20 1
10897 28 1
10897 34 2
10897 38 1
10898 19 1
10899 28 1
10900 24 1
10900 34 1
10901 3 1
10901 12 1
10902 10 1
10903 1 1
10903 2 1
10903 3 7
10903 14 1
10903 34 11
10904 4 1
10904 5 23
10904 38 29
10905 4 3
10905 5 8
10905 38 13
10906 2 1
10906 10 1
10906 14 1
10906 22 1
10906 24 1
10906 38 1
10907 3 1
10907 4 13
10907 5 51
10907 38 53
10908 2 1
10908 21 9
10908 22 8
10909 4 5
10909 5 13
10909 31 1
10909 38 19
10910 7 1
10911 3 1
10911 4 1
10911 11 1
10911 12 1
10911 18 2
10911 19 2
10911 24 2
10911 29 1
10911 38 2
10912 5 1
10912 19 2
10912 24 1
10912 29 1
10912 31 2
10912 38 1
10913 18 1
10913 21 1
10913 22 1
10914 24 2
10915 18 16
10915 19 16
10915 20 14
10916 8 1
10916 18 4
10916 19 7
10916 24 1
10916 31 1
10917 9 6
10917 10 12
10917 11 4
10917 19 1
10918 18 9
10918 19 9
10918 20 2
10918 38 2
10919 9 1
10919 18 1
10920 2 1
10920 21 1
10921 5 1
10921 26 3
10922 19 1
10923 12 5
10923 14 1
10923 24 1
10924 5 1
10925 19 1
10926 24 3
10927 20 1
10927 21 1
10928 21 19
10928 22 6
10928 24 1
10929 24 4
10929 34 1
10930 2 1
10931 18 1
10932 2 1
10933 3 1
10934 2 2
10934 3 17
10934 12 3
10934 34 24
10935 4 2
10935 5 14
10935 24 1
10935 38 12
10936 2 1
10937 4 1
10938 24 1
10939 3 1
10940 2 1
10940 3 2
10940 5 1
10940 7 1
10940 8 1
10940 16 1
10940 18 1
10940 24 1
10940 30 1
10940 31 1
10940 34 2
10940 38 1
10941 31 12
10942 24 1
10943 28 2
10944 29 1
10945 18 1
10945 24 5
10945 29 5
10945 31 11
10946 29 10
10946 30 1
10947 14 1
10947 28 3
10948 24 1
10949 24 14
10949 28 1
10950 38 1
10951 8 1
10952 14 2
10953 16 1
10953 21 1
10953 23 1
10953 24 34
10953 31 13
10954 22 1
10955 34 1
10956 2 1
10956 18 9
10956 19 28
10956 20 1
10957 19 1
10958 29 1
10959 18 1
10960 21 1
10961 26 1
10962 12 16
10962 13 1
10962 14 4
10963 18 1
10963 19 3
10964 24 1
10965 21 2
10965 22 5
10966 5 2
10966 15 1
10966 21 1
10966 24 2
10966 28 1
10966 29 3
10966 34 1
10966 38 1
10967 24 1
10968 31 1
10968 34 1
10969 18 7
10969 19 20
10969 20 6
10970 11 1
10970 14 1
10970 24 1
10970 29 1
10970 34 1
10971 21 23
10971 22 22
10972 15 1
10972 17 1
10973 7 1
10974 2 1
10974 18 1
10974 31 1
10975 3 1
10975 5 1
10975 14 1
10975 17 1
10975 19 1
10975 24 2
10975 34 2
10975 38 1
10976 7 1
10976 18 1
10977 24 16
10978 3 1
10978 29 7
10979 20 1
10980 7 1
10980 8 2
10981 22 1
10982 19 1
10983 14 1
10983 15 1
10983 21 1
10983 29 1
10983 34 3
10983 38 1
10984 22 1
10985 29 9
10985 30 3
10986 2 1
10986 18 1
10986 24 1
10986 28 1
10987 2 1
10987 8 1
10987 11 1
10987 24 1
10987 34 1
10988 3 2
10988 4 1
10988 5 1
10988 19 1
10988 24 3
10988 38 1
10989 24 1
10990 2 1
10990 3 1
10990 29 10
10990 30 3
10991 3 5
10991 34 3
10992 4 4
10992 5 16
10992 21 1
10992 38 24
10993 26 1
10994 21 13
10994 22 18
10995 24 1
10996 2 2
10996 3 3
10997 18 18
10997 19 28
10997 20 4
10997 29 1
10998 3 1
10998 19 1
10999 22 1
11000 5 1
11000 16 1
11000 23 1
11000 24 37
11001 14 1
11002 28 3
11003 5 1
11003 12 1
11004 24 3
11004 31 1
11005 25 1
11006 29 7
11006 30 2
11007 2 1
11007 3 3
11007 24 2
11007 26 4
11007 31 1
11007 34 3
11008 21 1
11009 21 1
11009 24 1
11010 29 1
11010 34 1
11011 12 6
11011 14 5
11012 4 1
11013 13 2
11013 14 25
11013 19 37
11013 20 19
11013 26 1
11013 29 1
11014 10 1
11014 19 1
11014 34 1
11014 38 1
11015 1 1
11016 2 4
11016 3 2
11016 5 1
11016 7 1
11016 10 1
11016 16 2
11016 18 1
11016 19 1
11016 22 1
11016 24 2
11016 28 1
11016 29 1
11016 31 1
11016 34 1
11016 38 1
11017 4 1
11017 38 1
11018 18 1
11019 2 1
11019 3 3
11019 8 1
11019 12 2
11019 18 1
11019 19 2
11019 21 1
11019 34 1
11019 38 1
11020 2 1
11020 18 1
11020 28 2
11021 7 1
11021 21 1
11021 31 1
11022 4 1
11022 5 5
11022 15 1
11022 38 1
11023 4 1
11024 26 2
11025 38 1
11026 3 2
11026 4 2
11026 5 1
11026 38 1
11027 38 1
11028 23 1
11028 24 12
11029 14 1
11029 21 1
11030 3 1
11031 29 1
11032 24 1
11033 18 1
11033 19 7
11033 20 2
11033 24 1
11034 28 3
11035 31 4
11035 34 1
11036 34 1
11037 5 1
11037 7 1
11038 29 6
11039 4 1
11039 5 3
11039 29 1
11040 5 1
11041 3 1
11042 15 1
11042 17 2
11042 19 1
11043 24 1
11044 31 1
11045 2 2
11045 3 5
11045 12 1
11045 19 1
11045 34 7
11046 3 1
11046 4 1
11046 12 16
11046 14 13
11046 22 1
11047 18 1
11047 19 2
11048 14 1
11048 38 1
11049 3 1
11049 34 1
11049 38 1
11050 5 1
11050 38 4
11051 23 1
11051 24 18
11052 9 1
11053 19 1
11054 3 1
11054 5 1
11054 9 1
11054 10 1
11054 14 1
11054 29 1
11054 34 4
11054 38 1
11055 24 1
11055 29 1
11056 3 1
11056 34 2
11057 38 1
11058 15 1
11059 21 5
11060 24 9
11061 4 1
11062 38 1
11063 3 1
11064 24 2
11065 19 1
11066 1 1
11066 2 27
11066 3 39
11066 34 54
11067 5 1
11068 19 1
11069 9 1
11069 21 2
11069 22 1
11070 31 1
11071 19 1
11072 29 1
11072 31 3
11073 21 1
11074 12 28
11074 14 21
11075 21 11
11075 22 1
11076 2 8
11076 3 10
11076 8 1
11076 34 14
11077 2 1
11078 2 2
11078 3 3
11078 34 6
11079 14 1
11079 21 1
11080 29 1
11081 15 1
11081 29 1
11082 7 1
11082 8 3
11083 4 6
11083 5 39
11083 38 48
11084 3 1
11084 38 1
11085 5 1
11085 24 14
11086 24 1
11087 31 6
11088 3 1
11088 24 23
11089 3 1
11089 31 1
11089 34 1
11090 17 1
11091 2 1
11091 3 1
11091 12 1
11091 16 1
11091 19 1
11091 21 1
11091 29 1
11091 31 1
11091 38 1
11092 12 1
11093 12 1
11093 18 13
11093 19 13
11093 20 11
11094 28 10
11094 38 1
11095 31 2
11096 15 1
11097 12 9
11097 14 4
11098 5 1
11099 5 1
11100 3 1
11101 5 1
11102 9 1
11103 18 1
11103 29 3
11104 21 16
11104 22 20
11105 4 2
11105 5 5
11105 38 4
11106 3 1
11106 9 13
11106 10 11
11106 11 8
11107 25 1
11107 26 6
11108 31 24
11108 38 1
11109 29 1
11110 5 1
11111 31 1
11112 19 1
11113 1 2
11113 2 16
11113 3 36
11113 9 1
11113 29 1
11113 34 50
11114 12 1
11114 24 1
11114 29 3
11115 22 1
11116 2 1
11116 28 1
11117 2 4
11117 3 16
11117 34 13
11118 21 21
11118 22 12
11119 31 1
11120 38 1
11121 3 1
11122 4 5
11122 5 27
11122 38 24
11123 2 1
11124 38 3
11125 22 1
11126 2 1
11126 5 1
11126 34 1
11127 18 1
11127 19 1
11127 29 1
11128 2 7
11128 3 7
11128 34 14
11129 31 1
11129 38 1
11130 18 1
11131 29 3
11132 18 1
11133 34 1
11134 8 1
11135 5 1
11136 24 14
11137 15 2
11137 34 1
11138 18 1
11139 18 13
11139 19 7
11139 20 3
11140 3 1
11140 8 1
11141 5 1
11142 29 27
11142 30 1
11143 2 1
11144 9 1
11144 10 1
11145 29 1
11146 5 2
11147 21 1
11148 3 1
11148 19 1
11149 34 1
11150 19 1
11150 34 1
11151 21 8
11151 22 10
11152 38 1
11153 8 1
11154 21 1
11155 2 1
11155 3 1
11155 24 1
11156 5 1
11157 28 3
11158 22 1
11159 20 1
11160 34 1
11161 3 1
11162 34 1
11162 38 1
11163 3 1
11164 38 1
11165 5 1
11166 12 1
11167 17 1
11168 18 38
11168 19 34
11168 20 2
11169 18 1
11169 24 1
11170 29 1
11171 28 2
11171 38 1
11172 19 1
11173 18 1
11174 9 1
11174 19 1
11174 29 1
11175 10 1
11175 26 1
11176 5 1
11176 28 6
11177 10 1
11178 3 1
11178 28 5
11178 38 1
11179 2 1
11179 3 1
11179 4 8
11179 5 28
11179 14 1
11179 19 1
11179 24 1
11179 38 41
11180 21 4
11180 22 5
11180 34 1
11181 19 1
11181 26 1
11181 29 5
11181 30 1
11182 19 1
11183 5 1
11184 22 1
11185 3 2
11185 28 3
11186 2 5
11186 3 7
11186 24 5
11186 34 6
11187 31 1
11188 12 2
11188 14 3
11188 38 1
11189 21 24
11189 22 20
11189 38 1
11190 24 1
11191 18 1
11191 29 1
11192 29 8
11193 21 13
11193 22 7
11194 31 4
11195 9 5
11195 10 19
11195 11 8
11195 18 1
11196 4 4
11196 5 15
11196 38 20
11197 34 1
11198 28 1
11199 22 1
11200 24 7
11201 28 7
11201 38 1
11202 20 1
11203 12 6
11203 14 3
11203 15 4
11203 16 4
11203 17 3
11204 19 1
11205 29 18
11205 30 1
11206 34 1
11207 12 4
11207 13 1
11207 14 4
11208 2 1
11208 3 1
11208 12 1
11208 18 1
11208 24 1
11208 29 1
11208 34 1
11209 12 1
11210 2 1
11211 21 1
11212 31 1
11213 29 2
11214 4 5
11214 5 32
11214 38 38
11215 29 29
11215 30 4
11216 38 1
11217 5 1
11218 7 1
11219 12 1
11219 14 1
11219 24 1
11220 2 1
11221 5 1
11221 24 10
11221 34 2
11222 18 1
11222 24 1
11223 5 5
11223 19 1
11223 38 5
11224 29 1
11225 24 6
11226 2 3
11226 3 3
11226 34 1
11227 3 1
11228 12 9
11228 14 4
11229 12 17
11229 14 9
11229 21 27
11229 22 21
11230 20 3
11231 5 1
11232 21 1
11232 22 1
11233 24 1
11233 31 5
11233 38 1
11234 18 1
11235 1 1
11235 2 6
11235 3 7
11235 18 1
11235 31 2
11235 34 8
11236 5 2
11236 38 3
11237 7 1
11237 8 1
11237 19 1
11237 24 24
11237 34 1
11238 3 1
11238 29 1
11238 34 1
11239 3 1
11240 18 1
11240 26 1
11241 38 1
11242 10 5
11242 11 1
11242 19 1
11242 24 1
11242 38 1
11243 14 1
11243 18 1
11244 19 1
11245 20 1
11246 2 1
11247 21 1
11247 34 1
11248 19 1
11249 38 1
11250 29 28
11250 30 2
11251 2 1
11251 3 3
11251 4 1
11251 8 1
11251 9 1
11251 15 1
11251 18 1
11251 19 1
11251 21 1
11251 28 1
11251 29 1
11251 31 1
11251 34 4
11251 38 1
11252 38 1
11253 5 1
11253 15 1
11253 19 1
11253 20 1
11253 21 3
11253 22 1
11253 29 2
11253 38 2
11254 34 2
11255 22 1
11255 24 1
11256 2 2
11256 3 2
11256 10 1
11256 12 1
11256 18 1
11256 24 1
11256 29 1
11256 34 4
11257 5 1
11257 31 8
11258 34 1
11259 21 1
11259 22 1
11259 29 15
11259 30 1
11259 34 1
11260 9 1
11261 3 1
11261 24 1
11262 4 1
11262 9 34
11262 10 51
11262 11 41
11263 34 1
11264 29 5
11265 29 2
11266 21 1
11267 12 1
11268 3 1
11268 19 1
11268 20 1
11269 4 5
11269 5 22
11269 29 1
11269 38 13
11270 12 1
11270 24 1
11270 29 1
11270 31 18
11271 24 8
11272 2 11
11272 3 17
11272 12 1
11272 14 1
11272 34 27
11273 22 1
11274 23 1
11275 9 1
11275 17 1
11275 29 14
11275 30 1
11276 3 1
11277 2 1
11277 34 2
11278 9 4
11278 11 9
11279 7 1
11279 22 1
11280 18 1
11281 19 1
11282 18 1
11283 5 1
11284 20 1
11285 4 1
11285 21 1
11286 2 1
11287 29 1
11288 17 1
11289 2 1
11290 34 1
11291 38 1
11292 29 5
11293 2 1
11293 3 5
11293 4 2
11293 10 1
11293 19 1
11293 20 1
11293 24 2
11293 29 1
11293 30 1
11293 31 3
11293 34 3
11293 38 2
11294 19 1
11294 26 7
11295 2 1
11296 4 4
11296 5 13
11296 18 12
11296 19 16
11296 20 8
11296 38 5
11297 12 1
11298 29 10
11299 19 1
11300 7 1
11301 29 29
11301 30 1
11302 12 17
11302 14 9
11303 3 2
11303 5 3
11303 8 3
11303 12 1
11303 14 1
11303 15 1
11303 16 1
11303 19 1
11303 22 1
11303 24 2
11303 29 2
11303 31 1
11303 34 1
11303 38 5
11304 15 2
11304 16 2
11304 17 1
11305 18 1
11306 2 1
11307 3 1
11308 12 1
11309 16 1
11310 2 1
11311 34 1
11312 7 2
11312 8 1
11313 24 4
11313 38 5
11314 3 1
11314 9 7
11314 10 6
11314 11 6
11314 12 1
11314 22 1
11314 24 1
11315 28 6
11316 18 1
11317 34 1
11318 5 1
11318 38 1
11319 3 1
11320 18 1
11321 3 1
11321 4 5
11321 5 44
11321 38 49
11322 21 1
11322 29 15
11322 30 2
11323 2 1
11323 3 1
11323 34 1
11324 18 3
11324 19 1
11324 20 1
11325 2 7
11325 3 28
11325 34 46
11326 31 16
11327 12 20
11327 14 13
11328 26 1
11329 26 6
11330 38 1
11331 5 2
11331 12 1
11331 19 1
11331 20 1
11331 24 1
11331 38 2
11332 19 1
11333 21 1
11334 12 1
11334 24 11
11335 24 21
11335 26 1
11336 34 1
11337 3 1
11337 18 1
11338 24 17
11339 19 1
11339 28 9
11340 5 1
11340 12 5
11340 14 5
11341 7 2
11341 9 2
11341 10 2
11341 11 2
11341 31 1
11342 3 1
11343 8 1
11343 28 1
11344 18 1
11345 12 1
11345 24 5
11346 24 1
11347 5 1
11348 2 1
11348 5 1
11348 8 1
11348 12 1
11348 18 1
11348 24 2
11348 29 2
11348 38 2
11349 28 1
11350 8 1
11350 18 11
11350 19 15
11350 20 7
11351 3 1
11351 17 1
11351 19 1
11351 38 1
11352 3 1
11353 3 1
11354 2 1
11355 16 1
11356 34 1
11356 38 1
11357 9 1
11358 24 1
11359 8 1
11360 29 10
11360 30 1
11361 3 1
11362 29 20
11362 30 2
11363 3 1
11363 24 1
11364 5 1
11364 18 1
11365 2 13
11365 3 15
11365 20 1
11365 34 13
11366 12 1
11366 19 1
11367 19 1
11367 24 24
11368 18 1
11369 3 2
11369 23 1
11369 24 13
11370 12 7
11371 3 2
11371 5 1
11371 7 1
11371 12 1
11371 21 3
11371 22 1
11371 24 1
11371 28 1
11371 29 1
11371 34 2
11371 38 2
11372 24 1
11373 12 1
11373 34 1
11374 2 2
11374 3 6
11374 34 4
11375 38 1
11376 34 1
11377 38 1
11378 5 1
11378 10 1
11378 21 2
11379 19 1
11380 21 12
11380 22 2
11381 3 1
11382 38 1
11383 22 2
11384 29 1
11385 2 10
11385 3 23
11385 5 1
11385 21 2
11385 34 22
11386 5 1
11386 11 1
11386 34 1
11387 5 8
11387 24 1
11387 38 11
11388 18 1
11389 23 2
11389 24 7
11389 25 1
11390 21 16
11390 22 10
11391 5 1
11392 24 1
11393 38 1
11394 2 2
11394 18 1
11394 24 1
11394 34 3
11395 18 13
11395 19 15
11395 20 3
11395 38 1
11396 15 3
11396 16 2
11396 17 5
11397 31 1
11398 2 6
11398 3 4
11398 24 1
11398 34 9
11399 3 1
11399 4 6
11399 5 37
11399 12 1
11399 38 37
11400 29 1
11401 5 1
11402 3 1
11403 1 2
11403 2 16
11403 3 27
11403 18 1
11403 34 23
11403 38 1
11404 4 1
11404 13 1
11404 28 5
11404 38 1
11405 34 1
11406 31 5
11407 34 1
11408 14 1
11409 38 1
11410 24 1
11411 24 1
11411 29 16
11411 30 4
11412 4 1
11412 24 1
11413 26 1
11414 34 1
11415 15 12
11415 16 6
11415 17 4
11416 2 1
11417 12 25
11417 14 6
11418 23 1
11418 24 11
11419 24 3
11420 28 1
11421 23 1
11421 24 6
11421 28 2
11421 31 2
11422 3 1
11422 18 4
11422 19 12
11422 20 1
11422 22 1
11422 38 1
11423 34 1
11424 21 5
11425 23 1
11425 24 28
11426 5 1
11427 2 1
11427 3 2
11427 5 1
11427 11 1
11427 19 2
11427 26 1
11427 34 1
11427 38 1
11428 2 2
11428 3 6
11428 34 10
11429 2 1
11429 9 1
11429 18 1
11429 29 21
11429 30 1
11430 34 1
11431 3 1
11431 11 1
11431 30 1
11432 2 1
11432 3 1
11432 5 2
11432 29 1
11432 34 1
11432 38 3
11433 18 1
11434 11 1
11434 19 1
11434 24 22
11435 5 1
11436 34 1
11437 3 1
11438 5 1
11438 18 1
11438 31 2
11438 34 1
11439 5 1
11440 2 34
11440 3 73
11440 31 1
11440 34 76
11441 2 1
11441 11 1
11442 4 1
11443 15 1
11443 31 1
11443 38 1
11444 2 1
11444 3 3
11444 4 1
11444 5 1
11444 10 1
11444 12 1
11444 16 1
11444 17 2
11444 18 5
11444 19 3
11444 20 2
11444 21 2
11444 24 1
11444 29 2
11444 34 1
11444 38 2
11445 18 1
11446 31 14
11446 34 1
11446 38 1
11447 19 1
11447 29 15
11447 30 1
11448 21 1
11449 14 1
11450 7 1
11450 34 1
11451 22 1
11452 26 1
11453 31 2
11454 29 9
11455 9 1
11456 2 1
11456 3 1
11456 14 1
11457 19 1
11458 34 1
11459 18 1
11460 15 1
11460 18 1
11460 19 1
11460 34 1
11461 17 1
11462 10 1
11462 11 1
11462 15 1
11463 20 1
11464 18 15
11464 19 17
11464 20 8
11465 5 9
11465 19 1
11465 38 13
11466 8 1
11467 19 1
11468 10 2
11469 19 1
11470 5 1
11471 5 1
11472 4 1
11472 9 13
11472 10 23
11472 11 21
11473 15 1
11474 3 1
11474 24 1
11475 14 1
11476 4 1
11476 5 7
11476 38 1
11477 22 1
11478 17 1
11479 31 4
11480 4 1
11481 21 1
11482 24 1
11483 21 15
11483 22 9
11484 34 2
11485 2 17
11485 3 29
11485 34 41
11486 3 1
11486 21 1
11486 22 1
11487 2 4
11487 3 3
11487 34 5
11488 34 1
11489 20 1
11490 34 4
11491 3 1
11492 34 1
11493 34 1
11494 3 2
11494 11 1
11494 22 1
11495 3 1
11495 5 3
11495 9 1
11495 18 2
11495 19 8
11495 20 3
11495 24 2
11495 34 1
11495 38 1
11496 18 16
11496 19 30
11496 20 7
11497 23 1
11497 24 8
11498 3 1
11498 21 1
11499 3 4
11499 5 2
11499 14 1
11499 15 1
11499 21 2
11499 29 2
11499 30 1
11499 34 1
11499 38 1
11500 34 1
11501 29 3
11502 3 1
11502 7 3
11502 8 4
11502 29 1
11503 5 1
11504 12 1
11505 2 2
11505 3 2
11505 31 4
11505 34 3
11506 34 1
11507 12 1
11508 2 3
11508 3 11
11508 34 5
11509 18 1
11510 38 1
11511 31 2
11512 18 21
11512 19 24
11512 20 3
11513 34 1
11514 5 1
11515 29 4
11515 30 1
11516 12 1
11516 19 1
11516 29 12
11516 30 2
11517 29 1
11517 34 1
11518 34 1
11519 12 1
11519 19 1
11519 21 12
11519 22 16
11520 2 1
11520 18 1
11520 19 2
11520 29 2
11520 34 1
11521 12 1
11522 18 1
11523 3 1
11523 34 1
11524 1 1
11524 2 1
11524 3 2
11524 34 4
11525 5 1
11525 21 1
11525 23 1
11525 24 7
11525 34 1
11526 2 1
11526 15 3
11526 16 2
11526 17 3
11526 31 1
11527 19 1
11528 21 2
11528 22 1
11528 31 1
11528 38 1
11529 31 2
11530 34 1
11531 5 4
11531 38 3
11532 14 1
11532 18 4
11532 19 16
11532 20 10
11533 9 1
11534 3 1
11534 4 1
11534 5 2
11534 8 1
11534 12 2
11534 18 1
11534 19 2
11534 21 3
11534 31 1
11534 34 6
11534 38 4
11535 15 1
11536 3 1
11537 1 1
11537 2 1
11537 3 4
11537 34 5
11538 8 1
11538 28 1
11539 5 1
11540 10 1
11540 19 1
11540 29 1
11540 34 1
11541 5 1
11542 12 1
11542 31 1
11542 34 1
11543 21 1
11544 26 1
11545 2 1
11545 24 2
11546 3 1
11546 9 1
11546 18 1
11546 28 6
11547 2 6
11547 3 12
11547 5 1
11547 34 21
11548 2 8
11548 3 18
11548 34 20
11549 3 3
11549 16 1
11549 18 1
11549 22 1
11549 24 1
11549 34 1
11549 38 1
11550 2 1
11550 3 4
11550 9 1
11550 10 1
11550 12 1
11550 15 1
11550 19 1
11550 20 1
11550 29 1
11550 31 1
11550 34 1
11550 38 1
11551 2 1
11551 25 1
11551 26 18
11551 34 1
11552 4 1
11553 4 4
11553 5 26
11553 38 29
11554 19 1
11555 22 1
11556 18 6
11556 19 13
11556 20 4
11556 38 1
11557 3 1
11558 3 1
11559 18 15
11559 19 19
11559 20 7
11559 34 1
11559 38 1
11560 29 7
11561 2 7
11561 3 12
11561 34 6
11562 18 1
11563 18 1
11563 24 25
11564 14 1
11565 3 1
11566 3 1
11566 12 1
11566 18 1
11566 21 1
11566 34 1
11567 8 1
11568 29 17
11568 30 1
11569 9 9
11569 10 22
11569 11 16
11569 18 1
11570 10 3
11570 11 2
11570 34 1
11571 5 1
11571 10 1
11571 12 3
11571 14 1
11571 24 1
11572 23 1
11572 24 8
11573 5 1
11573 12 21
11573 13 1
11573 14 11
11574 12 1
11575 38 1
11576 28 4
11577 3 1
11577 28 8
11578 18 7
11578 19 24
11578 20 14
11579 8 3
11580 34 1
11581 1 1
11581 2 7
11581 3 49
11581 19 1
11581 31 1
11581 34 85
11582 31 1
11583 5 1
11584 18 10
11584 19 25
11584 20 2
11585 12 2
11585 14 2
11585 38 1
11586 12 1
11586 19 1
11586 20 1
11586 38 1
11587 38 1
11588 28 6
11589 9 1
11589 29 10
11590 38 1
11591 21 1
11592 3 1
11592 5 1
11592 18 8
11592 19 14
11592 20 7
11593 19 1
11594 10 1
11595 20 1
11595 21 19
11595 22 13
11595 34 1
11596 5 1
11597 21 7
11597 22 9
11598 19 1
11598 29 3
11598 30 1
11599 7 1
11599 17 1
11600 19 1
11601 28 1
11601 29 1
11601 34 1
11602 18 6
11602 19 17
11602 20 5
11603 4 1
11603 24 17
11603 28 1
11604 12 1
11605 10 1
11605 31 20
11605 33 1
11606 34 1
11607 31 17
11607 38 1
11608 3 2
11608 5 3
11608 10 1
11608 12 1
11608 24 1
11608 28 3
11608 29 1
11608 38 1
11609 21 1
11610 5 1
11611 2 2
11611 3 1
11611 5 1
11611 18 1
11611 22 1
11611 29 1
11612 15 1
11612 16 1
11613 16 1
11613 24 1
11614 9 3
11614 10 18
11614 11 9
11615 12 1
11616 12 3
11616 14 1
11616 34 1
11617 24 1
11618 21 1
11618 22 1
11619 24 1
11620 24 11
11621 5 1
11621 8 1
11621 9 1
11621 18 1
11621 19 1
11621 20 1
11621 38 4
11622 9 1
11623 5 1
11624 26 1
11624 28 1
11624 34 1
11625 2 1
11626 4 1
11626 5 1
11626 9 1
11626 10 1
11626 12 1
11626 22 1
11626 24 1
11626 34 1
11627 38 2
11628 29 3
11628 30 1
11629 29 9
11629 30 3
11630 2 1
11630 7 2
11630 8 6
11631 31 1
11632 34 1
11633 21 1
11634 5 1
11634 26 1
11634 34 1
11635 20 1
11636 21 16
11636 22 13
11636 31 1
11637 38 2
11638 34 1
11639 21 1
11639 22 2
11640 31 4
11640 34 1
11641 21 1
11642 2 1
11643 28 5
11644 22 1
11645 4 1
11645 15 9
11645 16 6
11645 17 8
11645 20 1
11645 21 3
11645 22 4
11646 2 12
11646 3 13
11646 5 1
11646 24 4
11646 29 3
11646 30 1
11646 34 16
11647 20 1
11648 24 27
11648 31 1
11649 2 1
11650 3 1
11650 9 1
11650 10 1
11650 11 1
11650 29 1
11650 34 1
11651 31 15
11652 8 2
11652 14 2
11652 29 1
11653 9 14
11653 10 16
11653 11 20
11653 19 1
11654 8 1
11655 7 21
11655 8 42
11656 14 1
11657 5 1
11658 12 7
11658 13 1
11658 14 5
11659 2 1
11659 3 4
11659 4 4
11659 5 12
11659 34 2
11659 38 13
11660 2 1
11661 31 1
11662 18 24
11662 19 32
11662 20 9
11662 22 2
11662 29 1
11662 34 1
11663 3 1
11663 16 1
11664 29 10
11664 30 1
11665 4 1
11665 24 1
11666 5 1
11667 8 1
11667 31 4
11667 34 1
11668 2 4
11668 3 9
11668 15 1
11668 34 6
11669 10 1
11669 24 14
11670 24 1
11671 1 1
11671 3 8
11671 34 6
11672 4 4
11672 5 1
11672 38 5
11673 5 1
11673 12 1
11673 24 8
11673 34 1
11674 21 1
11675 4 4
11675 5 8
11675 19 1
11675 38 6
11676 8 1
11677 31 28
11677 33 2
11678 7 2
11678 8 9
11678 31 1
11679 31 6
11680 12 18
11680 14 6
11681 18 17
11681 19 57
11681 20 17
11682 28 1
11683 20 1
11684 3 1
11684 38 1
11685 10 1
11685 26 5
11686 3 1
11686 5 1
11686 10 1
11686 38 1
11687 31 15
11688 3 1
11689 8 1
11690 34 1
11691 31 6
11692 12 1
11692 24 16
11693 24 6
11693 26 1
11694 2 2
11694 19 1
11694 34 2
11695 5 1
11695 38 1
11696 3 1
11696 24 1
11697 12 14
11697 14 4
11697 18 1
11697 38 1
11698 2 1
11698 5 1
11698 23 1
11698 29 1
11698 38 1
11699 21 1
11700 8 1
11701 5 1
11702 14 1
11703 24 1
11704 5 1
11705 3 1
11705 5 1
11705 8 1
11705 34 2
11706 21 1
11707 12 2
11708 19 1
11709 12 1
11710 23 1
11710 24 6
11711 4 2
11711 5 3
11711 38 11
11712 38 1
11713 4 19
11713 5 65
11713 30 1
11713 38 89
11714 5 1
11714 19 1
11714 34 1
11715 18 1
11716 29 13
11717 3 1
11717 19 1
11718 19 1
11719 18 4
11719 19 12
11719 20 8
11720 4 1
11720 5 1
11721 18 1
11721 19 2
11721 20 1
11721 34 1
11722 28 2
11723 34 1
11724 24 1
11725 29 3
11726 19 2
11727 31 1
11728 12 1
11728 16 1
11728 21 11
11728 22 8
11729 1 1
11729 2 1
11729 3 1
11729 11 1
11729 19 1
11729 21 1
11729 24 2
11729 28 1
11729 31 1
11729 34 5
11730 2 1
11731 12 7
11731 14 6
11732 11 1
11733 22 1
11734 24 5
11734 29 9
11734 30 1
11735 18 1
11736 21 1
11736 31 6
11737 34 1
11738 34 1
11739 29 1
11740 12 3
11741 3 1
11741 7 2
11741 8 15
11742 4 1
11742 31 1
11743 1 1
11743 2 15
11743 3 26
11743 22 1
11743 34 41
11744 2 3
11744 3 3
11744 5 2
11744 8 1
11744 11 1
11744 15 1
11744 18 1
11744 21 1
11744 22 1
11744 24 1
11744 29 1
11744 31 2
11744 34 2
11744 38 2
11745 22 1
11746 18 2
11747 5 1
11747 7 1
11747 14 1
11747 24 1
11747 29 1
11747 34 1
11748 2 6
11748 3 3
11748 34 7
11749 21 22
11749 22 15
11750 2 13
11750 3 37
11750 19 1
11750 34 43
11751 31 1
11752 3 1
11752 38 2
11753 29 1
11754 7 1
11755 8 1
11755 18 3
11755 19 3
11755 20 4
11755 21 1
11756 2 6
11756 3 8
11756 34 3
11757 8 1
11758 3 1
11759 9 10
11759 10 8
11759 11 6
11760 18 1
11760 19 1
11760 20 1
11761 29 1
11762 14 1
11762 20 1
11762 22 1
11762 24 1
11762 34 1
11763 29 1
11764 3 1
11764 34 1
11765 19 1
11766 7 13
11766 8 15
11766 21 1
11767 3 1
11767 4 1
11767 11 1
11767 12 1
11767 18 1
11767 19 1
11767 21 1
11767 22 1
11767 29 1
11767 34 3
11768 7 4
11768 8 7
11769 5 1
11770 12 8
11770 14 7
11770 19 1
11771 34 1
11772 7 5
11772 8 6
11773 29 1
11774 8 1
11775 12 1
11776 34 1
11777 18 19
11777 19 19
11777 20 7
11778 31 1
11779 14 1
11779 15 12
11779 16 7
11779 17 10
11779 20 1
11780 28 3
11780 34 1
11781 34 1
11782 10 6
11782 11 2
11782 14 1
11783 17 1
11784 22 1
11784 28 7
11785 24 1
11786 2 1
11787 10 1
11787 19 1
11788 31 9
11789 34 1
11790 18 1
11791 11 1
11791 18 1
11791 19 1
11791 24 1
11792 22 1
11793 3 2
11793 5 1
11793 16 1
11794 12 1
11795 18 14
11795 19 29
11795 20 2
11795 31 14
11796 24 1
11797 31 6
11798 3 1
11798 34 2
11799 38 1
11800 22 1
11801 19 1
11801 20 1
11801 29 1
11802 3 1
11803 38 1
11804 34 1
11805 21 3
11805 22 1
11806 5 1
11806 12 1
11806 18 1
11806 24 1
11806 29 1
11806 38 1
11807 31 1
11808 22 1
11808 28 1
11809 20 1
11810 2 1
11811 3 1
11812 5 2
11813 34 1
11814 3 1
11814 7 4
11814 8 8
11815 5 1
11816 2 1
11816 10 1
11817 5 2
11817 38 1
11818 29 9
11818 30 2
11819 18 1
11819 19 2
11820 24 10
11821 5 1
11821 11 1
11821 12 10
11821 14 9
11822 5 1
11823 38 1
11824 9 2
11824 10 2
11824 12 1
11824 14 1
11824 19 1
11825 34 1
11826 3 1
11826 4 3
11826 5 27
11826 24 1
11826 38 21
11827 22 1
11828 2 2
11828 3 10
11828 34 14
11829 3 1
11829 4 1
11829 5 3
11829 17 1
11829 18 3
11829 19 2
11829 21 4
11829 29 2
11829 31 1
11829 34 4
11829 38 2
11830 7 1
11830 22 1
11830 34 1
11831 3 1
11832 2 1
11833 2 1
11833 24 13
11833 38 1
11834 8 1
11835 24 1
11835 28 1
11836 3 1
11836 12 21
11836 14 18
11837 11 1
11838 34 1
11839 12 3
11839 14 6
11840 4 1
11840 5 5
11840 38 6
11841 5 1
11841 21 1
11841 38 1
11842 10 1
11843 3 1
11843 12 1
11843 29 1
11844 31 1
11845 34 1
11846 15 1
11847 20 1
11848 3 2
11848 5 1
11848 17 1
11848 19 2
11848 21 1
11848 22 1
11848 24 1
11848 34 1
11848 38 1
11849 12 1
11849 14 2
11850 12 1
11851 11 1
11852 4 6
11852 5 18
11852 38 17
11853 34 1
11854 34 1
11855 12 1
11855 34 1
11856 24 1
11857 15 1
11858 18 1
11858 28 3
11859 8 1
11860 10 1
11860 24 1
11861 23 3
11861 24 29
11862 21 1
11863 5 1
11863 18 4
11863 19 1
11863 20 3
11864 2 4
11864 3 9
11864 34 8
11865 28 1
11866 15 8
11866 16 3
11866 17 3
11867 19 1
11867 24 1
11867 29 13
11867 30 1
11867 34 1
11868 3 1
11868 21 10
11868 22 5
11869 5 1
11869 38 1
11870 2 1
11870 24 15
11870 34 1
11871 38 1
11872 15 1
11873 29 1
11874 2 1
11875 29 4
11876 31 8
11877 5 1
11877 14 1
11878 2 4
11878 3 6
11878 5 1
11878 10 1
11878 34 6
11879 15 1
11879 20 1
11880 2 1
11880 3 10
11880 28 4
11880 34 7
11881 3 1
11882 5 1
11882 19 1
11883 24 1
11884 31 1
11885 31 7
11886 24 13
11887 8 1
11888 38 1
11889 3 1
11890 31 1
11891 17 1
11892 31 1
11893 28 2
11894 24 2
11895 38 1
11896 8 1
11896 17 1
11896 19 1
11896 34 1
11897 12 1
11898 12 2
11899 24 1
11900 26 4
11901 4 3
11901 5 16
11901 18 1
11901 38 15
11902 5 1
11903 5 1
11903 18 1
11903 38 1
11904 19 1
11905 5 1
11906 18 6
11906 19 8
11906 20 4
11907 10 1
11907 28 4
11907 38 2
11908 2 1
11909 19 1
11910 14 1
11910 18 7
11910 19 5
11910 20 2
11911 3 1
11911 22 1
11912 5 1
11912 15 1
11912 29 1
11913 3 2
11913 4 1
11913 5 3
11913 11 1
11913 12 1
11913 17 1
11913 18 2
11913 22 1
11913 24 1
11913 34 1
11913 38 1
11914 3 1
11915 29 15
11915 30 1
11916 28 2
11916 38 1
11917 3 1
11918 29 1
11919 3 1
11920 24 1
11920 28 2
11921 24 7
11922 20 1
11923 15 6
11923 16 4
11923 17 4
11923 24 1
11924 2 1
11925 18 2
11925 19 2
11926 18 1
11927 34 1
11928 5 1
11929 2 1
11930 24 1
11931 2 1
11931 14 1
11931 24 1
11931 29 1
11931 34 1
11932 24 2
11932 34 1
11933 24 2
11934 15 1
11935 2 2
11935 3 4
11935 8 1
11935 12 1
11935 14 1
11935 18 3
11935 19 2
11935 21 1
11935 24 1
11935 29 1
11935 31 1
11935 34 2
11935 38 1
11936 4 4
11936 5 27
11936 38 35
11937 31 5
11938 2 1
11938 38 1
11939 3 1
11940 12 6
11940 14 1
11941 2 1
11942 12 1
11943 38 1
11944 3 1
11944 10 2
11944 11 2
11944 14 1
11944 19 1
11945 12 1
11945 34 1
11946 24 1
11947 3 1
11948 19 1
11948 29 4
11949 18 4
11949 19 6
11949 20 3
11950 9 2
11950 10 2
11951 28 2
11952 24 1
11953 24 5
11954 2 1
11954 3 1
11954 5 3
11954 10 1
11954 12 1
11954 14 1
11954 17 1
11954 19 2
11954 20 1
11954 21 1
11954 24 1
11954 29 4
11954 34 2
11954 38 1
11955 19 1
11956 19 1
11957 22 1
11958 15 2
11958 17 1
11959 18 1
11959 19 1
11960 18 1
11961 19 1
11961 34 1
11962 5 1
11963 29 30
11963 30 2
11964 1 1
11964 2 20
11964 3 23
11964 34 25
11965 8 1
11965 24 5
11966 9 8
11966 10 12
11966 11 6
11967 3 1
11968 24 1
11968 34 1
11968 38 1
11969 2 15
11969 3 19
11969 34 17
11970 19 1
11971 3 1
11972 4 1
11972 5 13
11972 38 16
11973 34 1
11974 5 1
11975 28 7
11976 38 1
11977 34 1
11978 3 1
11978 5 1
11978 12 11
11978 14 11
11979 21 1
11980 12 1
11980 29 9
11980 30 2
11981 18 1
11982 38 1
11983 1 1
11983 2 14
11983 3 33
11983 34 43
11984 5 1
11985 5 1
11985 29 1
11985 34 1
11986 10 1
11987 31 1
11988 7 4
11988 8 12
11988 11 1
11988 29 2
11989 31 1
11990 29 1
11991 14 1
11992 2 1
11993 16 1
11993 34 1
11994 3 1
11995 4 1
11995 5 2
11995 38 1
11996 2 1
11996 24 15
11997 2 10
11997 3 14
11997 34 15
11998 10 1
11998 17 1
11998 34 1
11999 24 1
11999 26 3
11999 31 15
11999 38 1
12000 2 1
12001 24 14
12001 31 1
12002 18 7
12002 19 13
12002 20 6
12003 3 1
12003 26 1
12003 34 1
12004 34 1
12005 7 1
12006 22 1
12006 29 2
12006 31 1
12006 34 1
12006 38 1
12007 2 1
12007 3 1
12007 5 1
12007 10 1
12007 11 1
12007 19 1
12007 34 2
12008 2 10
12008 3 30
12008 34 49
12009 24 1
12010 29 2
12011 2 2
12011 3 3
12011 5 1
12011 28 4
12011 34 9
12012 21 5
12012 22 3
12013 34 1
12014 10 1
12014 21 1
12015 29 1
12016 24 1
12017 31 1
12018 3 1
12018 12 1
12019 38 1
12020 11 1
12021 9 1
12022 9 24
12022 10 32
12022 11 23
12023 3 1
12024 2 1
12024 20 1
12024 24 1
12025 5 1
12026 15 12
12026 16 8
12026 17 5
12027 19 1
12028 34 1
12029 5 1
12030 18 1
12030 31 1
12031 11 1
12031 21 24
12031 22 8
12031 29 9
12031 30 1
12031 34 1
12031 38 1
12032 38 1
12033 9 1
12034 29 1
12035 34 1
12036 4 6
12036 5 14
12036 31 1
12036 38 27
12037 24 13
12037 38 1
12038 19 1
12039 12 3
12039 14 2
12040 18 1
12041 15 1
12042 28 1
12043 15 1
12044 34 1
12045 2 3
12045 3 1
12045 5 3
12045 11 1
12045 15 1
12045 18 1
12045 22 1
12045 24 1
12045 29 1
12045 34 2
12046 2 11
12046 3 34
12046 20 1
12046 34 50
12047 5 1
12048 3 1
12049 18 4
12049 19 16
12049 20 7
12050 3 1
12051 26 5
12052 10 1
12053 5 1
12054 21 1
12054 34 1
12055 21 1
12056 21 1
12056 34 1
12057 19 1
12058 2 7
12058 3 3
12058 34 7
12059 21 11
12059 22 11
12059 34 1
12060 31 1
12061 2 1
12061 3 4
12061 4 1
12061 5 2
12061 12 1
12061 19 1
12061 21 1
12061 24 1
12061 28 1
12061 34 1
12062 2 1
12062 3 3
12062 5 1
12062 19 1
12062 24 1
12062 34 1
12062 38 1
12063 18 1
12063 24 13
12064 2 1
12065 5 3
12065 12 1
12065 38 2
12066 3 1
12066 21 1
12067 5 1
12067 20 1
12067 29 1
12068 38 1
12069 18 2
12069 19 5
12070 11 1
12070 12 17
12070 14 21
12070 18 1
12070 34 1
12071 18 1
12071 20 3
12071 34 1
12072 28 1
12073 34 1
12074 19 1
12075 9 16
12075 10 18
12075 11 21
12076 2 15
12076 3 35
12076 34 32
12077 10 1
12078 9 10
12078 10 19
12078 11 15
12078 34 1
12079 2 11
12079 3 15
12079 34 15
12080 21 1
12081 34 1
12082 29 1
12083 3 1
12083 10 1
12084 12 1
12085 26 1
12085 28 1
12086 2 1
12086 7 1
12086 10 1
12086 29 1
12086 31 1
12087 19 1
12088 38 1
12089 4 1
12089 38 3
12090 2 7
12090 3 17
12090 34 10
12091 24 15
12092 3 1
12092 4 1
12092 18 1
12092 19 1
12092 21 3
12092 23 1
12092 29 2
12092 34 1
12092 38 1
12093 22 1
12094 38 1
12095 2 1
12095 31 1
12095 34 2
12095 38 1
12096 7 1
12096 8 1
12096 28 1
12097 31 11
12097 33 1
12098 5 1
12098 15 1
12098 18 1
12098 22 1
12098 29 1
12098 31 1
12098 38 2
12099 18 1
12100 15 1
12100 31 5
12101 3 1
12102 5 1
12103 11 1
12104 7 1
12104 8 5
12105 3 1
12106 15 4
12106 16 2
12106 17 4
12107 5 2
12108 18 2
12109 8 1
12109 34 1
12110 38 1
12111 21 1
12112 38 1
12113 34 2
12114 5 1
12115 24 6
12116 38 1
12117 24 1
12118 21 1
12118 29 15
12118 30 2
12119 15 3
12119 17 4
12120 10 1
12120 12 1
12120 21 2
12120 22 3
12121 10 1
12121 24 11
12121 31 17
12122 7 8
12122 8 19
12123 19 1
12124 3 2
12124 12 1
12124 29 1
12124 34 2
12124 38 1
12125 38 1
12126 25 1
12126 31 8
12127 5 1
12128 19 1
12129 20 1
12129 24 1
12129 29 15
12129 30 1
12130 10 2
12130 21 1
12131 1 1
12131 2 6
12131 3 13
12131 34 11
12132 29 1
12133 31 1
12134 4 4
12134 5 23
12134 38 27
12135 12 1
12135 34 1
12136 20 1
12137 21 1
12138 2 1
12138 22 1
12138 24 3
12138 31 8
12139 19 1
12140 38 1
12141 29 7
12141 30 1
12141 31 6
12142 34 1
12143 7 2
12143 8 8
12143 31 1
12143 38 1
12144 28 1
12145 24 1
12146 3 1
12146 16 1
12146 26 1
12146 34 1
12147 3 1
12148 3 1
12148 9 1
12149 14 1
12150 38 1
12151 5 1
12151 18 5
12151 19 7
12151 20 4
12151 38 1
12152 24 1
12153 5 1
12154 29 35
12154 30 2
12155 29 1
12156 29 1
12157 3 1
12157 19 2
12157 22 2
12157 34 1
12158 29 1
12159 19 1
12160 15 2
12161 21 1
12161 31 1
12161 34 1
12162 16 1
12163 1 1
12163 2 8
12163 3 6
12163 29 3
12163 34 2
12164 26 3
12165 29 1
12166 2 1
12166 4 1
12166 5 1
12166 10 1
12166 12 1
12166 15 1
12166 19 1
12166 21 1
12166 34 1
12166 38 1
12167 31 1
12168 5 1
12169 2 1
12170 7 2
12170 8 1
12170 24 1
12171 2 1
12171 4 1
12171 5 2
12171 24 1
12171 34 1
12171 38 1
12172 5 1
12173 21 1
12174 34 1
12175 2 1
12175 15 1
12175 20 1
12176 5 4
12176 38 8
12177 19 1
12177 21 1
12178 29 3
12179 2 1
12179 3 2
12179 4 1
12179 12 2
12179 16 2
12179 24 1
12179 34 3
12179 38 1
12180 34 1
12181 19 1
12182 19 1
12183 18 1
12183 19 2
12184 29 1
12185 9 1
12186 11 1
12187 29 5
12187 34 2
12188 2 1
12189 3 1
12190 4 3
12190 5 23
12190 34 2
12190 38 26
12191 34 1
12192 12 33
12192 13 2
12192 14 21
12192 15 11
12192 16 9
12192 17 6
12193 14 1
12194 28 1
12195 5 1
12196 2 8
12196 3 12
12196 34 24
12197 31 1
12198 34 2
12199 29 1
12200 31 9
12201 22 1
12202 38 1
12203 24 1
12204 29 1
12205 2 1
12205 3 1
12205 8 2
12205 9 1
12205 18 5
12205 19 4
12205 20 4
12205 24 1
12205 34 1
12206 12 1
12207 22 1
12208 19 1
12209 10 1
12210 5 1
12211 22 1
12212 10 1
12213 14 1
12214 3 1
12215 31 7
12216 38 1
12217 18 1
12218 3 1
12218 12 1
12218 18 39
12218 19 32
12218 20 13
12218 22 1
12219 5 1
12219 10 11
12219 11 7
12219 24 2
12220 19 1
12220 20 2
12221 8 1
12221 18 1
12221 19 1
12222 3 1
12222 8 1
12222 12 1
12222 14 1
12223 19 1
12224 28 2
12225 10 1
12226 19 1
12227 31 1
12228 2 1
12229 24 1
12230 19 1
12231 21 1
12231 28 2
12231 29 6
12232 28 5
12232 31 1
12233 18 1
12234 15 1
12234 31 7
12235 21 1
12236 21 1
12237 29 5
12238 24 2
12239 19 1
12239 21 2
12239 22 2
12240 31 1
12240 34 1
12241 7 15
12241 8 23
12242 23 1
12242 24 16
12242 29 9
12242 30 2
12242 38 1
12243 7 1
12243 8 1
12244 2 1
12244 5 2
12244 12 1
12244 16 1
12244 17 1
12244 18 1
12244 24 1
12244 29 2
12244 34 1
12244 38 1
12245 17 1
12245 18 1
12245 24 10
12246 11 1
12247 38 1
12248 5 1
12248 10 1
12249 3 1
12249 22 1
12249 29 1
12250 34 1
12251 28 1
12252 29 1
12252 31 1
12253 31 1
12254 2 1
12255 29 1
12256 22 1
12257 29 1
12258 3 1
12258 4 3
12258 5 8
12258 16 1
12258 38 15
12259 5 1
12260 15 4
12260 16 5
12260 17 8
12261 2 1
12261 4 4
12261 5 44
12261 31 1
12261 38 58
12262 5 1
12263 18 1
12263 24 5
12264 38 1
12265 29 1
12266 34 1
12267 19 1
12268 22 1
12269 24 1
12270 2 1
12270 3 2
12270 5 1
12270 10 1
12270 12 2
12270 20 1
12270 29 1
12270 31 1
12270 34 1
12270 38 2
12271 24 1
12272 7 1
12272 14 1
12273 21 1
12273 22 1
12273 38 1
12274 12 6
12274 14 6
12274 38 1
12275 21 1
12276 34 1
12277 12 1
12278 28 1
12278 38 1
12279 24 4
12280 12 1
12281 29 1
12282 19 1
12283 5 1
12283 24 4
12284 12 9
12284 14 6
12284 19 1
12285 24 1
12286 4 1
12286 5 6
12286 38 8
12287 21 26
12287 22 21
12288 3 1
12288 14 1
12288 21 13
12288 22 14
12289 4 6
12289 5 26
12289 38 37
12290 11 1
12291 17 3
12291 34 1
12292 3 2
12292 22 1
12292 24 3
12292 38 2
12293 22 1
12294 11 1
12295 5 1
12295 29 4
12296 15 1
12297 3 1
12297 4 2
12297 5 13
12297 24 1
12297 38 12
12298 15 2
12298 17 2
12298 38 1
12299 29 1
12300 18 1
12301 2 3
12301 3 3
12301 8 2
12301 24 5
12301 34 2
12302 3 1
12303 29 7
12303 30 1
12303 31 1
12304 8 1
12305 28 1
12306 5 1
12307 38 1
12308 29 1
12309 34 1
12310 3 1
12310 8 1
12311 5 10
12311 38 3
12312 28 1
12313 3 1
12314 38 1
12315 3 1
12316 22 1
12317 4 5
12317 5 37
12317 38 38
12318 22 1
12319 10 1
12320 34 1
12321 12 1
12322 5 1
12323 5 1
12323 19 1
12323 34 1
12323 38 1
12324 2 2
12325 3 1
12325 5 1
12325 16 1
12325 19 1
12325 20 1
12325 34 3
12325 38 1
12326 38 1
12327 29 19
12327 30 2
12327 34 1
12328 18 33
12328 19 34
12328 20 9
12329 5 1
12330 2 9
12330 3 21
12330 31 1
12330 34 21
12331 19 1
12332 18 1
12333 3 1
12333 28 1
12334 3 2
12334 4 1
12334 7 1
12334 9 1
12334 12 2
12334 18 1
12334 19 1
12334 20 1
12334 21 1
12334 26 1
12334 29 1
12334 34 1
12334 38 1
12335 38 1
12336 14 1
12337 14 1
12337 34 1
12338 12 1
12338 21 7
12338 22 8
12338 34 1
12339 25 1
12340 18 3
12340 19 3
12340 20 3
12340 21 1
12340 38 2
12341 30 1
12342 5 1
12343 5 1
12343 22 1
12343 29 14
12343 30 3
12344 18 11
12344 19 15
12344 20 3
12344 24 1
12345 21 1
12346 5 1
12346 29 1
12347 34 1
12348 2 1
12348 5 1
12348 8 1
12348 14 1
12348 16 1
12348 21 1
12348 24 2
12348 28 2
12348 29 1
12348 34 4
12348 38 1
12349 21 1
12350 5 4
12350 7 3
12350 8 1
12350 12 62
12350 14 34
12350 38 5
12351 14 1
12352 29 1
12353 29 15
12353 30 1
12354 21 1
12354 29 1
12355 5 1
12356 12 1
12357 16 1
12357 19 1
12358 12 1
12358 31 4
12359 18 1
12360 2 3
12360 7 1
12360 11 1
12361 10 1
12362 5 1
12363 29 1
12364 3 1
12364 10 2
12364 18 1
12364 34 1
12365 29 13
12366 19 1
12367 20 1
12368 29 4
12369 21 1
12370 24 1
12370 29 1
12371 34 20
12372 22 1
12373 29 2
12373 31 4
12374 8 1
12375 19 1
12376 21 1
12377 21 1
12378 21 1
12379 18 28
12379 19 37
12379 20 28
12380 3 1
12380 15 22
12380 16 18
12380 17 19
12380 28 1
12381 2 8
12381 3 14
12381 5 1
12381 9 1
12381 15 1
12381 20 1
12381 31 1
12381 34 15
12382 21 19
12382 22 10
12383 2 1
12383 5 1
12384 21 1
12385 38 1
12386 7 1
12387 29 1
12387 30 1
12387 34 1
12388 2 2
12388 34 1
12389 4 7
12389 5 54
12389 38 49
12390 3 1
12390 12 2
12390 18 1
12390 19 1
12390 20 1
12390 21 1
12390 24 1
12390 29 2
12390 30 1
12390 34 1
12390 38 1
12391 18 1
12392 31 1
12393 29 10
12393 30 3
12393 38 1
12394 4 2
12394 5 1
12394 38 1
12395 4 4
12395 5 25
12395 38 40
12396 15 1
12396 17 1
12396 24 1
12397 1 1
12397 2 7
12397 3 9
12397 34 11
12398 24 1
12399 34 1
12400 29 2
12401 29 1
12402 4 1
12402 5 12
12402 38 9
12403 26 1
12404 18 5
12404 19 5
12404 20 3
12405 29 12
12406 4 6
12406 5 11
12406 38 8
12407 1 1
12408 24 1
12409 14 1
12410 38 1
12411 24 8
12412 38 1
12413 10 1
12413 16 1
12414 2 5
12414 3 12
12414 34 15
12415 20 1
12416 9 1
12416 26 1
12416 34 1
12417 3 1
12417 4 5
12417 5 33
12417 20 1
12417 21 3
12417 22 5
12417 38 27
12418 3 1
12418 8 1
12418 21 4
12418 22 6
12418 31 1
12419 7 1
12419 8 6
12420 22 1
12420 29 13
12420 30 4
12421 24 15
12422 3 2
12422 5 1
12422 16 2
12422 24 1
12422 29 1
12422 31 1
12422 34 1
12422 38 1
12423 4 1
12424 31 2
12425 34 1
12426 12 10
12426 14 6
12427 25 1
12427 26 6
12427 38 1
12428 38 1
12429 18 1
12430 19 1
12431 5 1
12432 28 1
12433 3 1
12434 31 2
12434 34 1
12435 34 2
12436 30 1
12436 31 12
12436 34 1
12437 19 1
12437 34 2
12438 10 1
12438 29 1
12439 34 1
12440 3 1
12440 4 1
12440 18 2
12440 24 1
12440 34 1
12441 38 1
12442 8 1
12443 18 2
12444 5 1
12445 28 4
12446 28 1
12447 29 1
12448 3 1
12448 5 1
12448 18 8
12448 19 7
12448 20 1
12448 29 2
12448 34 2
12448 38 1
12449 19 1
12450 2 8
12450 3 13
12450 34 9
12451 12 1
12452 10 1
12453 34 1
12454 24 1
12454 38 1
12455 3 1
12456 38 1
12457 2 1
12458 26 1
12459 5 1
12459 24 1
12459 38 1
12460 4 3
12460 5 3
12460 18 5
12460 19 3
12460 20 5
12460 38 8
12461 8 1
12461 11 1
12462 38 1
12463 3 1
12464 38 1
12465 24 3
12466 19 1
12466 29 1
12467 24 12
12468 8 1
12469 10 1
12469 18 1
12470 29 16
12470 30 2
12470 34 2
12471 3 1
12472 26 1
12473 18 1
12474 15 1
12475 5 1
12476 34 1
12477 22 1
12477 31 5
12478 2 1
12478 3 1
12478 5 2
12478 10 1
12478 14 1
12478 17 1
12478 20 1
12478 21 3
12478 22 1
12478 24 1
12478 29 2
12478 31 2
12478 34 3
12478 38 3
12479 9 5
12479 10 1
12479 11 2
12479 12 5
12479 14 2
12480 24 1
12481 3 1
12481 34 1
12482 3 1
12482 4 2
12482 5 11
12482 8 1
12482 38 10
12483 4 5
12483 5 21
12483 38 27
12484 5 9
12484 8 1
12484 38 8
12485 18 1
12486 38 1
12487 29 1
12488 4 4
12488 5 7
12488 24 1
12488 38 12
12489 1 1
12489 2 10
12489 3 22
12489 4 1
12489 34 15
12490 24 1
12491 8 1
12491 22 1
12492 34 2
12493 5 1
12494 19 1
12495 3 1
12495 19 1
12495 28 1
12495 34 2
12496 18 1
12496 19 2
12497 11 1
12497 31 6
12498 7 9
12498 8 12
12498 22 1
12499 1 1
12499 2 8
12499 3 10
12499 26 4
12499 34 12
12500 1 1
12501 29 5
12502 25 1
12502 26 5
12503 14 1
12503 24 2
12503 38 1
12504 24 24
12504 38 1
12505 5 1
12505 19 2
12506 11 1
12507 38 1
12508 29 1
12509 5 1
12509 11 1
12510 7 3
12510 8 2
12511 19 1
12511 28 5
12512 3 1
12512 14 1
12513 9 5
12513 10 4
12513 11 2
12514 21 1
12514 28 6
12514 31 8
12515 1 1
12515 2 39
12515 3 66
12515 14 1
12515 34 92
12516 5 3
12516 9 10
12516 10 15
12516 11 20
12516 22 1
12516 38 2
12517 21 1
12518 9 1
12519 5 1
12519 22 1
12519 34 1
12520 24 1
12520 29 1
12520 30 1
12521 3 1
12521 11 1
12521 16 1
12521 18 1
12521 21 1
12521 22 1
12522 28 1
12523 2 1
12524 16 1
12525 4 1
12525 5 5
12525 38 8
12526 21 8
12526 22 3
12526 29 1
12527 3 1
12528 14 1
12529 5 3
12530 3 1
12530 34 1
12531 18 1
12532 5 1
12533 38 1
12534 2 1
12534 24 1
12534 38 1
12535 21 1
12535 34 1
12536 24 1
12536 28 1
12537 38 1
12538 11 1
12538 12 1
12538 34 1
12538 38 1
12539 21 10
12539 22 5
12540 38 1
12541 38 2
12542 12 1
12543 4 5
12543 5 35
12543 38 24
12544 34 1
12545 16 1
12546 38 1
12547 12 1
12548 12 1
12549 20 1
12550 34 1
12551 3 1
12551 29 1
12551 30 1
12551 38 1
12552 15 1
12552 24 1
12553 14 1
12553 34 1
12554 5 1
12554 19 1
12555 18 1
12556 22 1
12557 21 1
12558 29 1
12559 13 1
12559 14 4
12560 2 25
12560 3 20
12560 34 37
12560 38 1
12561 16 1
12562 24 3
12562 38 1
12563 8 1
12563 24 1
12563 38 1
12564 16 1
12565 11 1
12566 24 6
12567 8 1
12567 29 11
12568 14 1
12568 18 1
12568 29 3
12569 16 1
12569 34 1
12570 3 1
12570 10 1
12571 17 1
12572 15 12
12572 16 14
12572 17 16
12573 31 6
12574 4 2
12574 5 12
12574 38 18
12575 2 1
12575 29 17
12575 30 1
12576 29 10
12576 30 2
12577 3 1
12578 3 1
12578 15 40
12578 16 30
12578 17 44
12578 21 1
12578 34 1
12579 16 2
12579 34 1
12580 19 1
12581 16 1
12582 4 2
12582 5 9
12582 21 1
12582 38 6
12583 19 1
12584 5 1
12584 18 1
12584 38 1
12585 24 1
12586 18 20
12586 19 26
12586 20 9
12587 18 1
12587 20 1
12588 9 2
12588 10 1
12588 11 7
12589 4 5
12589 5 19
12589 38 21
12590 3 1
12590 9 1
12591 2 7
12591 3 12
12591 34 23
12592 8 1
12592 34 2
12593 9 2
12593 10 4
12593 11 7
12593 18 1
12593 34 1
12594 2 10
12594 3 15
12594 10 1
12594 34 11
12595 5 2
12595 31 1
12596 10 1
12596 18 1
12597 3 1
12597 30 1
12598 24 44
12599 8 1
12599 19 1
12600 24 3
12601 24 1
12602 24 4
12603 12 8
12603 14 4
12604 15 3
12605 26 1
12606 4 7
12606 5 18
12606 38 36
12607 5 1
12608 19 1
12609 2 11
12609 3 9
12609 17 1
12609 34 13
12610 38 1
12611 5 1
12611 17 1
12611 19 2
12611 22 1
12611 24 2
12611 38 5
12612 10 1
12612 15 1
12612 19 1
12612 20 1
12612 28 1
12612 34 2
12613 3 1
12614 4 1
12614 18 7
12614 19 6
12614 29 1
12615 31 11
12616 4 4
12616 5 8
12616 38 15
12617 21 1
12618 3 1
12618 29 1
12619 14 1
12620 2 1
12620 24 1
12620 31 1
12621 2 6
12621 3 2
12621 34 15
12622 2 1
12622 29 4
12623 2 1
12624 18 1
12625 24 1
12626 2 2
12626 11 1
12626 34 3
12626 38 1
12627 2 1
12627 23 1
12627 24 1
12628 2 2
12628 3 12
12628 34 5
12629 31 1
12630 12 1
12631 23 1
12631 24 16
12631 38 1
12632 12 1
12633 3 1
12633 17 1
12634 9 1
12635 34 1
12636 19 1
12637 24 1
12638 15 12
12639 21 1
12640 9 4
12640 10 3
12640 11 4
12640 15 1
12641 19 1
12642 2 15
12642 3 15
12642 34 22
12643 38 1
12644 5 1
12644 19 1
12645 24 2
12645 31 1
12646 29 1
12647 12 5
12647 14 6
12648 38 1
12649 11 1
12650 8 4
12651 11 1
12652 21 1
12652 26 2
12652 31 1
12653 1 1
12653 3 1
12653 10 1
12653 11 1
12653 14 1
12653 22 2
12653 24 1
12653 31 1
12653 34 2
12653 38 1
12654 5 9
12654 38 10
12655 24 1
12656 24 1
12656 31 1
12656 34 1
12657 8 2
12657 15 3
12657 16 4
12658 3 1
12659 24 1
12660 3 1
12660 8 1
12660 24 1
12660 30 1
12661 1 4
12661 2 19
12661 3 46
12661 21 2
12661 34 44
12662 19 1
12662 20 2
12663 29 1
12664 3 1
12665 14 1
12665 34 1
12666 31 8
12667 2 1
12668 24 1
12669 5 1
12669 34 1
12670 4 4
12670 5 17
12670 29 1
12670 38 7
12671 19 1
12672 3 1
12672 5 1
12672 28 1
12672 29 6
12672 30 2
12673 29 1
12674 9 1
12675 29 1
12676 3 1
12676 21 2
12676 22 4
12677 28 3
12678 24 1
12679 9 8
12679 10 21
12679 11 20
12679 18 1
12680 3 1
12680 10 1
12681 11 1
12681 20 1
12681 24 1
12682 29 1
12683 4 1
12684 17 1
12685 31 9
12685 38 1
12686 8 1
12687 12 1
12688 8 1
12688 24 1
12689 4 1
12689 18 1
12690 11 1
12691 19 1
12691 24 1
12691 31 1
12691 34 2
12692 1 1
12693 10 1
12693 11 2
12694 5 1
12694 21 1
12694 24 1
12694 29 1
12694 34 2
12694 38 3
12695 18 1
12696 3 1
12697 11 1
12697 29 10
12698 29 1
12699 2 1
12700 2 1
12700 24 1
12701 18 7
12701 19 6
12701 20 3
12702 8 1
12703 3 1
12703 38 2
12704 34 1
12705 28 3
12706 17 1
12707 21 2
12707 22 10
12707 29 1
12708 29 1
12709 24 1
12710 29 1
12711 24 3
12712 5 1
12712 24 1
12713 5 2
12714 19 1
12714 29 1
12715 31 1
12716 16 2
12717 29 5
12718 31 1
12719 3 1
12719 5 1
12719 8 1
12719 18 1
12719 29 13
12719 34 1
12720 5 1
12721 30 1
12722 10 1
12723 4 2
12723 5 10
12723 38 11
12724 4 1
12724 5 3
12724 38 2
12725 2 5
12725 3 3
12725 34 4
12726 4 1
12727 5 1
12727 29 1
12728 18 8
12728 19 7
12728 20 1
12729 3 1
12730 9 1
12730 24 1
12731 2 4
12731 3 8
12731 5 1
12731 19 1
12731 31 13
12731 34 7
12732 24 1
12733 29 24
12733 30 1
12734 19 8
12734 20 4
12735 19 1
12735 28 1
12736 23 1
12736 24 12
12737 34 1
12738 21 1
12739 14 1
12740 3 3
12740 5 1
12740 8 1
12740 18 1
12740 19 1
12740 20 1
12740 22 1
12740 24 2
12740 29 2
12740 38 1
12741 16 1
12741 29 1
12741 31 1
12742 5 1
12742 19 2
12742 20 1
12742 21 1
12742 34 1
12743 5 1
12743 15 1
12743 16 2
12743 38 5
12744 20 2
12745 38 1
12746 19 1
12747 31 7
12747 34 1
12748 19 1
12748 31 1
12749 20 1
12750 21 1
12751 1 1
12751 2 43
12751 3 74
12751 34 80
12752 3 1
12753 29 1
12754 3 1
12754 5 1
12755 1 1
12755 3 2
12755 5 1
12755 18 1
12755 22 1
12755 26 2
12755 34 1
12756 21 1
12756 22 1
12757 5 1
12757 10 1
12757 19 1
12758 38 1
12759 11 1
12760 3 1
12761 3 1
12761 5 1
12761 10 1
12761 31 1
12761 34 1
12762 24 1
12763 24 1
12764 34 1
12765 18 1
12766 10 1
12767 12 9
12767 14 8
12768 38 1
12769 29 1
12770 21 6
12770 22 3
12771 21 1
12772 4 6
12772 5 7
12772 38 7
12773 18 16
12773 19 14
12773 20 2
12773 34 1
12774 34 1
12775 19 1
12776 24 8
12776 34 1
12777 15 1
12778 12 22
12778 14 21
12778 29 1
12779 38 1
12780 23 1
12780 24 7
12780 26 2
12781 19 1
12781 24 1
12781 29 1
12782 38 1
12783 18 1
12784 1 1
12784 2 11
12784 3 19
12784 34 18
12785 12 1
12786 22 1
12786 29 24
12787 19 1
12787 29 1
12788 34 1
12789 29 8
12790 2 1
12790 22 1
12790 24 1
12790 29 1
12790 31 1
12790 34 1
12790 38 1
12791 26 1
12792 9 3
12792 10 5
12792 11 2
12792 38 1
12793 34 1
12794 28 1
12795 2 4
12795 3 9
12795 34 6
12796 29 1
12797 29 1
12798 5 1
12799 31 1
12800 11 1
12801 19 1
12802 3 2
12802 11 1
12802 17 1
12802 19 1
12802 34 2
12803 34 1
12804 12 1
12805 4 2
12805 5 23
12805 34 1
12805 38 23
12806 3 1
12807 18 1
12808 22 2
12809 3 1
12809 5 3
12809 38 3
12810 22 1
12811 2 1
12811 14 1
12811 24 1
12812 2 1
12812 18 2
12812 20 1
12812 24 12
12812 38 2
12813 29 1
12814 2 1
12814 24 1
12815 3 1
12815 5 2
12815 12 1
12815 21 8
12815 22 8
12815 24 1
12815 38 1
12816 3 1
12817 34 1
12818 19 1
12819 38 2
12820 19 1
12820 29 14
12820 30 2
12821 20 1
12821 38 1
12822 2 1
12822 3 1
12822 34 2
12823 19 1
12824 31 1
12825 18 1
12825 20 1
12826 21 1
12827 5 1
12828 31 12
12829 2 2
12829 3 1
12829 34 7
12830 16 1
12831 3 1
12831 19 1
12832 24 1
12833 24 10
12834 24 2
12835 31 18
12836 21 1
12837 12 1
12837 14 2
12838 19 1
12839 38 1
12840 20 1
12841 29 1
12842 15 1
12843 38 1
12844 2 15
12844 3 16
12844 23 1
12844 24 1
12844 34 17
12845 19 1
12846 5 1
12846 31 13
12847 28 5
12848 5 1
12848 12 16
12848 13 2
12848 14 8
12849 31 2
12850 3 1
12851 18 1
12852 3 1
12853 17 2
12853 38 1
12854 19 1
12855 34 1
12856 3 1
12857 2 1
12857 3 5
12857 5 1
12857 34 3
12858 10 1
12858 19 1
12859 24 1
12859 31 4
12859 34 1
12860 2 1
12861 31 2
12862 34 1
12863 29 1
12864 18 1
12865 11 1
12865 38 1
12866 8 1
12867 24 1
12868 38 1
12869 2 3
12869 3 11
12869 22 1
12869 34 18
12870 24 1
12871 9 1
12872 2 3
12872 3 2
12872 5 1
12872 34 5
12873 12 2
12873 14 1
12874 18 1
12874 34 1
12875 12 16
12875 13 2
12875 14 13
12875 24 8
12876 14 1
12877 24 1
12878 38 1
12879 9 11
12879 10 15
12879 11 9
12880 2 3
12880 3 2
12880 8 1
12880 18 1
12880 19 1
12880 20 1
12880 29 1
12880 34 1
12880 38 1
12881 34 1
12882 15 2
12882 16 3
12883 24 1
12884 28 3
12885 4 3
12885 5 15
12885 9 4
12885 10 5
12885 11 6
12885 30 1
12885 38 22
12886 19 2
12886 26 1
12887 11 1
12888 38 1
12889 5 1
12889 18 15
12889 19 8
12889 20 1
12889 34 1
12890 34 1
12891 28 3
12891 31 4
12891 33 1
12892 2 2
12892 3 4
12892 24 1
12892 26 3
12892 29 1
12892 34 6
12892 38 1
12893 14 1
12894 1 2
12894 2 26
12894 3 40
12894 15 1
12894 19 1
12894 34 47
12895 4 5
12895 5 17
12895 38 10
12896 18 1
12897 29 5
12898 29 1
12899 31 1
12900 38 1
12901 9 1
12901 19 1
12901 38 1
12902 11 1
12903 2 3
12903 3 2
12903 34 7
12904 28 2
12904 29 1
12905 7 3
12905 8 3
12906 24 4
12907 3 1
12908 12 1
12908 21 1
12908 28 3
12909 18 18
12909 19 13
12909 20 3
12909 34 1
12910 24 1
12911 24 1
12912 28 3
12912 38 1
12913 7 14
12913 8 35
12914 15 1
12914 21 1
12915 5 1
12916 3 1
12916 14 1
12916 34 1
12917 12 1
12918 29 1
12919 18 1
12920 4 2
12920 5 3
12920 38 7
12921 3 1
12921 19 1
12921 34 1
12922 28 2
12923 24 15
12923 34 1
12924 18 1
12925 28 1
12926 2 1
12926 5 1
12926 19 1
12927 8 1
12928 38 1
12929 2 3
12929 7 1
12929 10 1
12929 18 3
12929 28 1
12929 31 1
12929 34 1
12930 5 1
12930 18 3
12930 19 4
12930 20 2
12931 22 1
12932 19 1
12933 2 1
12934 7 1
12934 20 1
12934 24 1
12935 21 1
12935 22 2
12935 38 1
12936 12 1
12937 7 8
12937 8 7
12938 3 1
12939 18 1
12940 8 1
12941 28 3
12941 29 1
12941 34 1
12942 24 1
12943 5 1
12944 8 3
12944 38 1
12945 18 2
12946 7 1
12947 9 3
12948 19 1
12948 31 1
12949 12 1
12950 34 1
12951 18 42
12951 19 45
12951 20 12
12952 3 2
12953 3 1
12953 29 1
12954 12 1
12955 4 1
12955 24 4
12955 25 1
12955 26 1
12956 38 1
12957 34 1
12958 24 1
12958 38 1
12959 12 1
12960 19 1
12961 12 1
12961 15 40
12961 16 32
12961 17 31
12962 3 1
12963 2 1
12964 10 1
12964 18 3
12964 19 4
12964 20 3
12965 7 2
12966 2 1
12967 5 1
12967 24 1
12967 29 10
12967 30 1
12968 31 7
12969 5 1
12970 12 1
12971 18 1
12971 28 1
12972 5 1
12973 18 1
12974 2 1
12975 21 7
12975 22 11
12976 4 1
12976 12 5
12976 14 3
12977 3 1
12977 10 1
12977 22 1
12978 3 1
12978 16 1
12978 29 1
12978 30 1
12979 26 1
12979 31 5
12979 38 1
12980 2 2
12981 12 1
12982 3 1
12983 5 4
12983 20 1
12983 38 4
12984 34 1
12985 7 1
12985 34 1
12986 19 1
12987 5 1
12988 4 12
12988 5 43
12988 14 1
12988 19 1
12988 28 1
12988 38 42
12989 24 4
12990 20 1
12991 38 1
12992 12 1
12992 38 1
12993 14 2
12994 2 1
12994 3 1
12994 5 1
12994 8 1
12994 10 1
12994 11 1
12994 12 1
12994 18 1
12994 19 2
12994 21 1
12994 25 1
12994 38 1
12995 15 13
12995 16 6
12995 17 4
12995 31 1
12996 16 1
12997 2 1
12997 3 1
12997 5 1
12998 28 3
12999 18 4
12999 19 5
12999 20 1
12999 21 1
13000 26 1
13001 9 1
13001 11 1
13002 31 3
13003 3 1
13003 19 1
13003 22 1
13004 5 1
13005 5 1
13005 8 1
13006 11 1
13007 24 5
13007 29 10
13007 30 1
13008 9 34
13008 10 40
13008 11 26
13008 24 1
13009 19 1
13010 12 6
13010 14 3
13011 4 1
13011 5 4
13011 38 4
13012 5 1
13012 8 1
13012 9 1
13012 29 1
13012 31 1
13012 34 1
13012 38 1
13013 15 8
13013 16 4
13013 17 2
13014 26 2
13015 22 1
13016 4 1
13016 15 1
13017 34 1
13018 15 1
13018 34 1
13019 21 1
13020 29 1
13020 34 2
13021 18 1
13021 29 5
13021 30 2
13022 3 1
13022 24 7
13023 3 1
13023 34 1
13024 38 1
13025 9 1
13026 31 1
13027 24 1
13028 3 1
13028 18 1
13028 19 1
13028 22 1
13028 24 2
13028 29 1
13028 34 2
13028 38 1
13029 9 9
13029 10 9
13029 11 3
13030 38 1
13031 18 1
13032 29 1
13033 24 1
13034 14 1
13035 21 16
13035 22 10
13036 3 1
13036 7 8
13036 8 27
13037 21 9
13037 22 15
13038 22 1
13039 24 4
13040 34 1
13041 12 2
13042 12 1
13043 2 1
13044 3 1
13045 29 1
13046 29 22
13046 30 1
13047 3 1
13047 4 5
13047 5 18
13047 38 20
13048 29 4
13049 38 1
13050 1 1
13050 2 12
13050 3 18
13050 34 21
13051 2 1
13051 15 18
13051 16 9
13051 17 12
13052 12 21
13052 21 7
13052 22 14
13053 15 1
13053 38 1
13054 21 1
13054 34 1
13055 16 1
13055 28 7
13056 24 1
13056 34 1
13057 4 4
13057 5 12
13057 25 1
13057 26 2
13057 38 21
13058 22 1
13058 34 1
13058 38 1
13059 2 1
13060 5 1
13061 29 1
13062 2 2
13062 5 1
13062 16 1
13062 19 1
13062 20 1
13062 29 1
13062 34 1
13062 38 2
13063 31 7
13064 29 7
13064 30 1
13065 2 8
13065 3 12
13065 24 4
13065 34 17
13066 15 1
13067 23 1
13068 12 1
13068 34 1
13069 22 1
13070 2 1
13071 5 1
13072 31 1
13073 24 1
13074 23 1
13074 24 26
13075 5 1
13076 29 5
13077 2 1
13077 22 1
13078 22 1
13079 24 12
13080 19 1
13080 21 28
13080 22 15
13081 18 5
13081 19 5
13081 20 2
13082 2 1
13083 18 1
13084 31 1
13085 21 10
13085 22 7
13085 29 1
13086 9 1
13086 19 1
13087 29 1
13088 21 1
13089 31 1
13090 2 2
13090 3 7
13090 5 1
13090 24 3
13090 34 11
13091 3 1
13091 5 1
13091 14 1
13091 22 1
13091 29 1
13091 34 1
13091 38 3
13092 1 1
13092 2 16
13092 3 30
13092 34 27
13093 3 1
13093 34 1
13094 3 1
13095 34 1
13096 12 18
13096 13 1
13096 14 3
13097 29 17
13097 31 6
13098 34 1
13099 5 1
13099 24 1
13099 28 1
13099 34 2
13100 21 1
13101 2 1
13101 28 1
13102 5 1
13102 24 2
13103 4 1
13104 2 2
13104 3 9
13104 28 4
13104 34 12
13105 18 8
13105 19 10
13105 20 6
13106 34 1
13107 3 1
13107 19 1
13107 24 8
13108 31 6
13109 18 32
13109 19 35
13109 20 10
13110 5 1
13110 12 9
13110 14 4
13111 24 12
13112 12 1
13112 14 1
13113 3 1
13114 4 4
13114 5 19
13114 38 26
13115 2 2
13115 34 2
13116 7 1
13116 19 1
13116 24 1
13117 4 7
13117 5 15
13117 38 24
13118 31 2
13119 3 2
13119 5 2
13119 10 2
13119 12 1
13119 18 1
13119 24 3
13119 31 1
13119 34 4
13119 38 2
13120 3 1
13120 4 1
13120 5 2
13120 38 4
13121 34 1
13122 26 1
13123 17 1
13123 24 1
13124 2 1
13125 38 1
13126 5 1
13127 12 22
13127 13 1
13127 14 10
13128 19 1
13129 3 1
13129 34 1
13130 19 1
13131 31 2
13132 2 1
13132 17 1
13132 26 1
13132 38 1
13133 18 1
13134 29 26
13135 1 1
13135 2 4
13135 3 9
13135 34 19
13136 5 1
13137 24 1
13138 29 1
13139 5 1
13140 5 1
13140 21 1
13140 34 1
13141 21 17
13141 22 28
13142 3 2
13142 12 1
13142 24 1
13142 34 1
13143 18 1
13144 17 1
13145 10 1
13145 34 1
13146 18 16
13146 19 13
13146 20 6
13147 2 1
13147 5 1
13147 21 1
13148 24 1
13149 31 1
13150 8 1
13150 34 1
13151 31 4
13152 24 1
13153 21 1
13154 5 1
13154 29 3
13155 2 1
13156 3 1
13156 34 1
13157 24 1
13158 2 1
13158 21 22
13158 22 28
13159 3 1
13159 21 1
13159 22 3
13160 9 10
13160 10 19
13160 11 11
13160 38 1
13161 18 7
13161 19 12
13161 20 3
13162 2 4
13162 3 7
13162 34 3
13163 38 1
13164 29 16
13164 30 1
13165 19 1
13166 2 2
13166 8 1
13166 17 1
13166 20 1
13166 34 1
13167 23 2
13167 24 4
13168 29 15
13168 30 1
13169 11 1
13169 31 1
13169 34 1
13170 4 8
13170 5 11
13170 38 16
13171 4 1
13172 9 3
13172 10 5
13172 11 7
13173 21 1
13174 16 1
13175 7 1
13175 31 7
13176 24 1
13177 22 1
13178 29 1
13179 19 1
13180 18 1
13181 2 1
13182 2 3
13182 3 1
13182 34 3
13183 7 1
13183 8 2
13184 18 1
13185 3 2
13185 8 1
13185 9 1
13185 14 1
13185 18 1
13185 19 1
13185 21 1
13185 22 1
13185 24 1
13185 34 1
13185 38 1
13186 23 1
13186 24 10
13187 3 1
13187 12 4
13187 13 2
13187 14 1
13187 18 13
13187 19 11
13187 20 7
13187 21 3
13187 22 5
13187 38 1
13188 2 1
13188 5 1
13188 7 1
13188 14 1
13188 18 1
13188 19 1
13188 20 1
13188 21 1
13188 29 3
13188 34 2
13188 38 1
13189 31 3
13190 12 1
13191 29 10
13192 4 1
13192 5 4
13192 12 1
13192 38 11
13193 38 1
13194 38 1
13195 3 1
13195 34 1
13195 38 1
13196 4 1
13196 5 3
13196 38 8
13197 34 1
13198 23 2
13198 24 25
13199 4 3
13199 5 11
13199 18 1
13199 38 9
13200 24 1
13200 29 5
13200 30 2
13201 5 1
13201 18 3
13201 19 4
13201 20 2
13201 22 1
13201 30 1
13201 31 1
13202 3 1
13203 19 1
13204 5 1
13205 28 2
13205 29 1
13205 31 1
13206 11 1
13207 17 1
13208 7 3
13208 8 2
13208 19 1
13209 17 1
13210 2 1
13210 34 3
13211 11 1
13212 5 1
13212 20 1
13212 21 1
13212 29 1
13213 5 1
13214 18 1
13215 3 1
13215 28 1
13215 31 1
13216 38 1
13217 10 1
13218 7 4
13218 8 26
13219 22 1
13220 9 3
13220 11 1
13221 2 8
13221 3 22
13221 34 38
13222 24 1
13222 34 1
13223 34 1
13224 18 21
13224 19 23
13224 20 13
13225 14 1
13225 19 1
13226 9 2
13226 10 1
13226 11 2
13226 18 2
13226 19 4
13226 20 4
13227 14 1
13227 19 2
13227 24 1
13227 28 1
13227 34 3
13227 38 2
13228 3 1
13229 11 1
13230 28 2
13231 21 3
13231 22 1
13232 21 2
13232 22 2
13233 15 1
13233 34 1
13234 19 1
13234 24 1
13234 31 2
13235 31 6
13236 5 1
13236 8 2
13236 15 1
13236 18 1
13237 15 1
13237 19 2
13237 24 1
13237 31 1
13238 38 1
13239 12 2
13240 18 12
13240 19 14
13241 34 1
13242 3 1
13242 5 1
13243 18 1
13244 2 1
13244 29 3
13245 29 2
13246 12 3
13246 14 3
13246 18 1
13247 22 1
13248 29 2
13249 3 1
13250 18 1
13251 2 1
13252 7 2
13252 8 4
13252 16 1
13253 8 1
13254 18 1
13255 12 22
13255 13 2
13255 14 10
13256 3 1
13257 15 1
13258 29 27
13258 30 2
13259 12 1
13259 19 1
13259 23 1
13259 24 19
13260 20 1
13261 18 14
13261 19 22
13261 20 8
13262 34 1
13263 3 2
13263 7 1
13263 8 1
13263 10 1
13263 24 1
13263 31 1
13263 34 2
13263 38 2
13264 8 1
13264 24 8
13265 10 1
13266 17 1
13266 18 1
13267 7 2
13267 8 2
13267 22 1
13267 34 1
13268 24 1
13269 12 14
13269 14 12
13270 18 1
13270 19 1
13271 5 1
13271 12 1
13272 19 1
13273 4 2
13273 5 10
13273 38 17
13274 12 1
13274 24 42
13275 10 1
13276 18 1
13276 19 5
13276 34 1
13277 21 8
13277 22 10
13277 34 2
13278 24 18
13279 34 1
13280 9 1
13281 2 1
13281 31 1
13282 34 1
13283 3 1
13283 21 1
13284 5 1
13285 19 1
13285 38 1
13286 8 1
13286 21 9
13286 22 17
13287 38 1
13288 29 9
13289 3 1
13289 15 1
13289 34 6
13289 38 1
13290 2 1
13290 12 1
13290 18 1
13290 24 9
13291 10 1
13291 19 2
13291 34 1
13292 2 1
13293 24 7
13294 38 1
13295 21 6
13295 22 4
13296 28 7
13297 4 1
13297 38 1
13298 14 1
13298 29 1
13299 4 1
13299 5 2
13299 10 1
13299 18 1
13299 19 2
13299 31 1
13299 34 3
13300 4 5
13300 5 7
13300 38 11
13301 2 16
13301 3 40
13301 24 1
13301 34 53
13302 7 4
13302 8 16
13302 34 1
13303 21 11
13303 22 10
13303 24 1
13303 29 13
13303 30 1
13304 4 2
13304 5 15
13304 38 19
13305 3 1
13305 11 1
13306 8 1
13307 24 1
13307 28 1
13308 2 1
13309 29 3
13309 34 1
13310 5 1
13310 31 8
13310 34 1
13311 38 1
13312 38 1
13313 2 1
13313 29 4
13313 30 3
13314 21 14
13314 22 8
13315 12 1
13316 3 2
13316 4 1
13316 8 1
13316 19 1
13316 29 2
13316 34 1
13316 38 3
13317 9 1
13318 29 1
13319 3 2
13319 21 1
13319 24 20
13320 11 1
13321 14 1
13321 29 2
13322 11 13
13322 18 16
13322 20 3
13323 3 1
13324 24 6
13325 24 4
13326 5 1
13326 16 1
13327 11 1
13328 30 1
13329 5 1
13330 2 2
13330 5 2
13330 12 1
13330 14 1
13330 15 1
13330 20 2
13330 22 3
13330 24 1
13330 29 2
13330 34 3
13330 38 1
13331 34 1
13332 3 2
13332 34 1
13333 31 1
13334 3 2
13334 4 1
13334 5 1
13334 12 2
13334 18 1
13334 19 1
13334 21 1
13334 22 1
13334 28 1
13334 29 1
13334 31 1
13334 34 2
13334 38 1
13335 31 1
13336 8 3
13336 18 2
13337 2 1
13337 12 1
13338 16 1
13339 12 1
13339 34 1
13340 9 2
13340 10 4
13340 11 2
13340 12 7
13340 14 6
13341 8 1
13342 3 1
13343 9 1
13343 10 1
13343 11 1
13343 34 1
13344 3 1
13344 24 1
13345 12 1
13346 21 1
13347 11 1
13348 12 1
13348 18 1
13348 24 9
13349 7 2
13349 8 3
13350 3 1
13351 15 7
13351 16 8
13351 17 9
13352 18 1
13353 24 1
13354 8 1
13354 20 1
13355 19 1
13355 31 2
13355 38 1
13356 18 1
13357 18 1
13358 28 3
13359 38 1
13360 24 1
13361 22 1
13362 24 1
13363 29 1
13363 30 1
13364 34 1
13365 31 2
13366 16 1
13367 3 2
13367 8 1
13367 18 2
13367 19 3
13367 20 1
13367 24 1
13367 31 1
13367 38 1
13368 31 1
13369 24 1
13370 12 1
13371 3 1
13372 34 1
13373 34 1
13374 34 2
13375 3 1
13375 18 3
13375 19 5
13375 20 3
13376 21 2
13376 22 2
13377 18 37
13377 19 38
13377 20 17
13378 18 30
13378 19 44
13378 20 22
13379 31 1
13379 38 1
13380 31 1
13381 12 1
13382 13 1
13383 29 17
13383 30 2
13384 19 3
13384 29 1
13385 29 13
13386 2 1
13386 5 2
13386 9 1
13386 19 4
13386 24 1
13387 18 1
13388 3 1
13388 4 1
13388 34 3
13388 38 1
13389 23 2
13389 24 14
13390 31 18
13391 31 1
13392 21 3
13392 22 2
13393 24 1
13394 5 1
13395 28 1
13396 34 1
13397 24 1
13398 18 1
13398 19 2
13399 3 1
13400 21 1
13401 24 1
13402 24 1
13402 25 3
13402 26 14
13403 2 1
13403 3 2
13403 34 2
13404 38 1
13405 3 1
13405 14 1
13405 15 3
13405 16 1
13405 17 3
13405 38 1
13406 34 1
13407 1 2
13407 2 20
13407 3 28
13407 34 39
13408 3 1
13409 34 1
13410 3 3
13410 15 1
13410 19 1
13410 26 1
13411 31 25
13412 29 1
13413 3 1
13414 2 1
13414 12 1
13414 22 1
13415 24 7
13416 19 1
13417 14 1
13417 21 1
13417 22 1
13417 29 1
13417 31 2
13418 34 2
13419 31 1
13420 2 4
13420 3 5
13420 13 1
13420 34 4
13421 20 1
13422 18 1
13422 19 1
13422 24 1
13423 11 1
13423 20 1
13424 3 1
13425 31 1
13426 12 1
13427 1 1
13428 2 2
13428 3 6
13428 12 1
13428 26 1
13428 34 4
13429 2 1
13429 3 1
13429 5 3
13429 9 1
13429 21 1
13429 26 1
13429 29 1
13430 38 1
13431 18 2
13431 19 3
13432 9 2
13432 12 6
13432 14 6
13432 21 5
13432 22 7
13432 25 1
13433 3 1
13433 34 1
13434 29 1
13435 8 1
13436 12 3
13437 38 1
13438 34 2
13439 24 1
13439 34 1
13439 38 1
13440 3 1
13441 24 1
13442 2 9
13442 3 21
13442 34 27
13443 28 5
13444 3 3
13444 7 1
13444 10 1
13444 17 1
13444 19 1
13444 24 1
13444 31 1
13444 34 6
13444 38 1
13445 21 1
13446 1 2
13446 2 8
13446 3 24
13446 29 13
13446 34 23
13447 3 1
13448 38 1
13449 18 29
13449 19 28
13449 20 4
13449 34 1
13450 22 1
13451 23 1
13451 24 13
13451 29 1
13452 24 1
13453 8 2
13453 19 1
13454 3 1
13454 24 1
13455 28 2
13456 3 1
13456 19 1
13456 29 1
13456 34 3
13457 18 1
13457 34 1
13457 38 1
13458 3 1
13458 24 1
13459 12 1
13459 18 23
13459 19 38
13459 20 7
13460 22 1
13462 17 1
13463 2 1
13464 1 1
13464 2 1
13464 3 4
13464 24 1
13464 25 1
13464 26 3
13464 31 1
13464 34 5
13465 3 1
13465 18 1
13465 34 5
13466 2 1
13467 3 1
13467 4 4
13467 5 16
13467 24 1
13467 38 22
13468 34 1
13469 3 1
13469 5 1
13469 15 2
13469 18 3
13469 19 1
13469 24 1
13469 28 1
13469 34 3
13469 38 2
13470 18 1
13471 24 1
13472 2 12
13472 3 15
13472 24 8
13472 34 11
13473 18 1
13474 9 1
13474 22 1
13475 4 1
13475 5 1
13475 8 1
13475 12 1
13475 15 3
13475 24 1
13475 29 1
13475 34 1
13475 38 3
13476 2 27
13476 3 30
13476 29 1
13476 34 40
13477 28 7
13478 10 1
13479 29 14
13479 30 1
13480 3 1
13480 4 1
13480 20 1
13480 29 1
13480 34 1
13481 2 1
13482 34 1
13483 38 1
13484 34 4
13485 24 7
13485 34 1
13486 16 1
13486 17 2
13486 21 1
13487 9 1
13487 22 1
13488 17 1
13489 5 1
13489 15 6
13489 17 2
13489 21 1
13489 22 1
13490 2 1
13490 24 2
13491 10 1
13491 11 1
13492 34 1
13493 34 1
13494 23 1
13495 1 2
13495 2 19
13495 3 32
13495 34 26
13496 4 3
13496 5 26
13496 38 26
13497 25 1
13498 2 1
13499 3 1
13500 21 1
13500 22 1
13501 5 1
13501 9 1
13501 10 1
13501 21 1
13501 34 1
13502 38 1
13503 24 1
13504 3 1
13504 24 8
13504 29 1
13504 31 1
13505 3 2
13506 23 1
13506 24 12
13507 21 1
13508 24 1
13509 38 1
13510 5 1
13511 3 1
13512 2 2
13512 3 1
13512 4 1
13512 8 1
13512 12 2
13512 15 1
13512 17 1
13512 18 3
13512 19 3
13512 21 1
13512 29 1
13512 38 1
13513 16 1
13514 7 1
13515 18 2
13516 31 1
13517 2 1
13518 38 1
13519 3 1
13520 9 1
13521 38 1
13522 3 1
13522 23 1
13522 24 15
13523 8 1
13524 29 1
13525 3 3
13526 3 1
13527 10 1
13528 21 8
13528 22 4
13529 29 1
13530 34 1
13531 19 1
13532 2 1
13532 3 1
13532 10 1
13532 11 1
13532 18 1
13532 24 1
13532 26 1
13532 28 1
13532 34 3
13533 7 1
13533 8 2
13534 21 5
13534 22 1
13534 34 1
13535 10 1
13536 2 1
13536 34 3
13537 29 16
13538 5 1
13538 8 1
13539 18 2
13540 3 1
13541 15 1
13541 17 1
13542 9 1
13543 29 1
13544 24 1
13545 38 1
13546 2 3
13546 3 4
13546 10 1
13546 12 1
13546 18 36
13546 19 47
13546 20 13
13546 22 1
13546 34 8
13547 19 1
13548 19 3
13548 20 1
13549 38 1
13550 9 1
13551 31 3
13552 29 1
13553 5 1
13554 19 1
13554 28 5
13555 12 21
13555 14 20
13555 38 2
13556 20 1
13557 34 1
13558 18 1
13558 19 1
13559 3 1
13559 11 1
13560 2 1
13560 14 1
13560 18 1
13560 20 1
13560 34 1
13560 38 1
13561 18 2
13561 19 6
13561 20 1
13561 29 1
13562 24 1
13562 28 4
13563 2 1
13563 5 1
13563 7 1
13563 8 2
13563 19 4
13563 22 1
13563 24 1
13563 29 1
13563 34 1
13563 38 1
13564 5 2
13565 19 1
13565 20 1
13566 19 1
13567 26 1
13567 34 1
13568 24 1
13569 12 1
13569 34 1
13570 5 1
13570 21 8
13570 22 5
13571 24 1
13572 3 1
13572 18 4
13572 19 6
13572 20 2
13573 4 1
13573 10 1
13573 16 1
13573 19 1
13573 21 1
13573 24 3
13573 31 3
13573 34 1
13573 38 1
13574 34 1
13575 2 1
13575 3 2
13575 12 1
13575 19 1
13575 22 1
13575 31 2
13575 34 2
13575 38 2
13576 21 1
13577 31 1
13578 3 2
13578 5 1
13578 18 1
13578 34 1
13579 38 2
13580 3 1
13581 18 1
13582 12 5
13582 13 1
13582 14 1
13582 31 10
13583 2 1
13583 3 2
13584 18 10
13584 19 11
13584 20 4
13585 9 1
13586 38 1
13587 5 1
13588 11 1
13589 29 3
13590 29 1
13591 5 1
13591 18 1
13591 19 3
13592 18 1
13592 19 1
13593 2 2
13593 34 2
13594 3 1
13594 19 1
13595 3 1
13595 19 1
13596 5 1
13597 21 1
13598 34 1
13599 34 1
13600 5 1
13601 11 1
13602 21 13
13602 22 12
13603 14 1
13604 2 5
13604 3 15
13604 34 19
13605 3 1
13606 21 11
13606 22 20
13607 2 16
13607 3 23
13607 34 11
13608 15 1
13609 12 5
13609 14 5
13609 34 1
13610 19 1
13611 2 1
13611 3 2
13611 26 2
13612 19 1
13613 31 7
13614 19 1
13614 28 1
13615 5 1
13615 12 1
13615 19 1
13616 4 1
13616 5 1
13616 29 1
13617 29 20
13618 26 1
13618 34 1
13619 17 1
13620 14 1
13621 5 1
13621 34 1
13622 3 1
13623 20 1
13624 12 1
13625 18 1
13626 28 3
13627 4 1
13627 5 2
13627 14 1
13628 4 1
13628 7 9
13628 8 14
13629 2 1
13629 3 1
13629 28 2
13629 31 13
13629 34 1
13630 31 1
13631 38 1
13632 2 12
13632 3 25
13632 34 16
13633 5 1
13633 12 7
13633 14 3
13633 38 1
13634 4 1
13635 20 1
13635 29 1
13636 18 22
13636 19 23
13636 20 13
13637 19 1
13637 31 3
13638 24 1
13639 22 1
13640 19 1
13641 19 1
13641 21 6
13641 22 11
13642 5 1
13643 28 5
13644 28 1
13645 29 1
13645 30 1
13646 15 1
13646 38 1
13647 8 1
13648 24 10
13649 10 1
13650 29 1
13651 18 10
13651 19 16
13651 20 5
13652 21 1
13653 31 1
13654 24 1
13655 5 1
13655 19 1
13655 25 1
13656 26 1
13657 24 10
13657 34 1
13658 9 6
13658 10 17
13658 11 9
13658 15 2
13658 16 3
13659 3 1
13660 19 1
13661 4 3
13661 5 36
13661 19 1
13661 38 43
13662 24 8
13663 2 9
13663 3 9
13663 34 14
13664 3 1
13665 29 6
13665 30 1
13666 38 1
13667 5 1
13668 8 1
13669 3 1
13670 24 7
13671 2 12
13671 3 10
13671 34 7
13672 5 1
13673 24 1
13674 28 4
13675 5 1
13676 34 1
13677 3 1
13677 34 2
13678 18 2
13678 19 1
13678 34 1
13679 9 5
13679 10 6
13679 11 4
13679 34 1
13680 15 1
13680 17 1
13681 3 1
13682 21 1
13683 19 1
13683 21 1
13684 18 1
13685 19 1
13685 28 1
13686 5 1
13687 5 1
13687 16 1
13687 29 1
13688 19 1
13689 24 1
13690 3 1
13691 31 1
13691 34 1
13692 7 3
13692 8 5
13692 34 1
13693 1 1
13693 2 5
13693 3 13
13693 34 9
13694 30 1
13695 34 1
13696 1 1
13696 2 7
13696 3 28
13696 34 45
13697 3 1
13697 34 1
13698 15 1
13699 18 2
13699 19 3
13699 34 1
13700 18 1
13700 22 1
13700 25 1
13700 26 2
13701 12 1
13702 31 1
13703 1 1
13703 5 1
13704 3 2
13704 34 1
13705 9 1
13705 10 1
13705 11 1
13705 38 1
13706 38 1
13707 29 1
13708 38 1
13709 18 1
13710 18 5
13710 19 11
13710 20 4
13710 28 1
13710 29 1
13711 11 1
13711 28 9
13711 38 2
13712 3 1
13712 19 1
13712 31 3
13713 20 1
13713 38 1
13714 21 1
13714 22 1
13715 24 1
13716 24 7
13717 3 1
13717 24 3
13717 29 1
13718 29 1
13718 30 1
13719 34 1
13720 5 1
13721 22 1
13721 23 1
13721 24 15
13722 2 1
13723 28 3
13724 22 1
13725 21 1
13726 38 1
13727 5 1
13728 20 1
13729 24 1
13730 11 1
13731 19 1
13731 29 1
13732 2 1
13732 3 1
13732 5 4
13732 14 1
13732 18 1
13733 7 1
13734 24 16
13735 12 1
13736 18 1
13737 9 1
13738 4 1
13738 5 2
13738 12 8
13738 13 1
13738 14 2
13738 38 3
13739 2 1
13739 9 20
13739 10 27
13739 11 20
13739 34 1
13740 18 1
13741 3 1
13742 29 1
13742 34 1
13743 9 1
13744 3 1
13744 28 1
13744 29 2
13744 34 1
13745 12 1
13746 24 1
13747 3 1
13747 5 1
13747 23 1
13747 24 11
13748 11 1
13748 34 1
13749 30 1
13750 31 1
13751 31 1
13752 3 1
13753 26 1
13754 5 1
13754 34 1
13755 38 1
13756 2 3
13756 3 10
13756 34 7
13757 5 1
13758 26 1
13758 29 1
13759 24 7
13760 24 1
13761 15 6
13761 16 4
13761 17 8
13762 31 1
13763 23 1
13763 24 24
13764 24 1
13764 29 1
13764 31 1
13765 21 1
13765 22 1
13765 34 1
13766 3 1
13767 20 1
13767 29 2
13768 11 1
13769 28 1
13770 18 1
13770 21 1
13771 3 1
13772 34 1
13773 15 1
13773 17 1
13773 18 2
13773 19 8
13773 20 5
13773 24 1
13773 29 1
13773 38 1
13774 2 7
13774 3 6
13774 18 11
13774 19 14
13774 20 7
13774 24 1
13774 34 10
13775 10 1
13776 2 1
13776 34 1
13777 34 1
13778 10 2
13779 3 1
13780 20 1
13781 2 1
13782 5 1
13782 15 1
13782 19 1
13782 31 10
13782 38 1
13783 34 1
13783 38 2
13784 16 1
13785 4 4
13785 5 16
13785 38 24
13786 2 1
13787 9 1
13787 10 1
13787 19 1
13788 34 1
13789 19 1
13790 1 1
13790 2 32
13790 3 49
13790 4 1
13790 19 1
13790 34 56
13791 26 1
13792 4 2
13792 5 1
13793 12 1
13793 38 1
13794 8 1
13795 12 1
13795 14 1
13796 18 1
13797 8 1
13798 24 1
13798 29 6
13798 34 1
13799 7 1
13799 8 4
13800 5 1
13801 3 1
13802 29 1
13803 34 1
13804 18 1
13804 20 1
13805 7 1
13806 7 10
13806 8 14
13806 12 1
13807 4 2
13807 5 6
13807 24 1
13807 38 19
13808 19 1
13809 4 3
13809 21 1
13809 22 1
13809 38 4
13810 34 1
13811 29 1
13812 5 1
13813 31 13
13814 24 1
13815 29 1
13816 24 1
13816 26 1
13816 34 2
13817 18 25
13817 19 31
13817 20 13
13818 24 2
13818 26 1
13819 34 1
13820 26 1
13821 19 1
13822 8 2
13822 24 3
13822 38 1
13823 24 1
13823 28 3
13823 29 1
13823 31 1
13824 31 1
13825 7 1
13825 8 5
13826 31 9
13826 34 1
13827 21 21
13827 22 15
13828 24 11
13828 29 3
13828 30 2
13829 38 1
13830 34 1
13831 29 1
13832 24 1
13832 28 1
13832 29 10
13832 30 1
13833 3 1
13834 2 1
13835 12 1
13835 21 1
13836 12 8
13836 13 1
13836 14 11
13837 31 7
13838 2 9
13838 3 23
13838 29 2
13838 31 1
13838 34 18
13838 38 1
13839 5 1
13840 12 1
13841 19 1
13842 12 11
13842 14 7
13843 18 1
13843 21 1
13844 5 3
13844 38 3
13845 31 1
13846 4 9
13846 5 29
13846 38 50
13847 16 1
13848 2 1
13848 3 2
13848 19 1
13848 24 1
13848 29 1
13848 34 1
13848 38 1
13849 34 1
13850 2 1
13850 3 1
13850 34 2
13851 2 1
13851 3 1
13851 5 2
13851 7 1
13851 8 2
13851 9 1
13851 10 3
13851 12 1
13851 14 1
13851 15 1
13851 19 3
13851 21 1
13851 31 1
13851 34 2
13851 38 1
13852 2 1
13852 3 3
13852 4 1
13852 5 1
13852 22 2
13852 34 2
13852 38 1
13853 2 9
13853 3 20
13853 4 5
13853 5 11
13853 24 6
13853 34 22
13853 38 35
13854 3 1
13854 29 17
13855 3 1
13855 5 1
13856 5 1
13857 18 2
13858 12 1
13858 24 1
13859 3 2
13859 34 1
13860 7 14
13860 8 20
13860 34 1
13860 38 1
13861 9 1
13862 29 1
13863 2 11
13863 3 12
13863 5 1
13863 29 20
13863 30 1
13863 31 1
13863 34 17
13865 8 2
13866 24 1
13867 31 1
13868 26 3
13868 29 2
13869 10 1
13869 24 10
13870 9 13
13870 10 23
13870 11 17
13870 31 1
13871 19 1
13872 24 5
13872 34 1
13873 2 11
13873 3 35
13873 5 1
13873 22 1
13873 34 42
13874 11 1
13874 20 1
13874 34 1
13875 38 1
13876 12 1
13877 19 2
13877 34 1
13878 18 4
13878 19 5
13878 20 2
13878 31 1
13879 7 2
13879 8 8
13879 9 1
13879 10 1
13879 11 1
13879 34 1
13880 31 1
13881 3 2
13881 29 4
13882 1 1
13882 24 3
13882 31 1
13883 29 7
13884 3 2
13884 4 1
13884 5 1
13884 10 1
13884 14 1
13884 18 3
13884 19 1
13884 24 1
13884 29 1
13884 31 1
13884 34 1
13885 3 1
13885 34 1
13886 31 1
13887 8 1
13888 18 1
13889 2 1
13890 11 1
13890 18 1
13891 22 1
13892 24 2
13893 24 3
13894 4 1
13894 8 1
13894 10 1
13894 15 1
13894 19 1
13895 5 1
13895 23 1
13895 24 19
13896 12 8
13896 13 2
13896 14 4
13897 18 5
13897 19 4
13897 20 1
13898 29 4
13898 30 1
13899 7 1
13900 22 1
13901 3 2
13901 5 2
13901 10 1
13901 16 2
13901 24 2
13901 34 3
13902 34 1
13903 3 1
13903 19 1
13903 34 1
13904 7 21
13904 8 36
13905 38 1
13906 12 3
13906 14 1
13906 18 1
13906 29 1
13907 21 1
13908 3 1
13909 5 1
13910 3 1
13911 31 3
13912 21 1
13912 34 2
13913 29 1
13914 3 1
13915 1 1
13915 2 12
13915 3 18
13915 34 29
13916 29 5
13917 2 1
13917 3 2
13917 22 1
13917 24 2
13917 34 2
13918 10 1
13918 18 14
13918 19 17
13918 20 5
13918 21 1
13919 21 1
13920 1 1
13920 2 9
13920 3 19
13920 34 14
13921 12 1
13921 19 1
13922 29 1
13922 30 1
13922 34 1
13922 38 1
13923 4 2
13923 5 7
13923 30 1
13923 38 3
13924 34 1
13925 5 1
13926 22 1
13927 15 11
13927 16 7
13927 17 9
13928 19 1
13929 18 20
13929 19 27
13929 20 7
13930 2 9
13930 3 24
13930 26 1
13930 34 36
13931 2 1
13931 8 1
13932 12 1
13933 3 1
13933 4 2
13933 5 7
13933 7 1
13933 31 1
13933 34 1
13933 38 7
13934 21 1
13935 7 1
13935 34 1
13936 24 8
13937 12 1
13937 14 1
13937 18 1
13937 24 1
13937 31 1
13938 14 1
13939 14 1
13940 38 1
13941 29 1
13942 24 1
13942 26 1
13942 34 1
13943 18 1
13944 21 10
13944 22 7
13945 3 1
13946 9 1
13946 14 2
13946 18 1
13947 29 6
13948 26 1
13948 31 12
13949 9 9
13949 10 13
13949 11 12
13949 19 1
13949 22 1
13949 34 1
13950 21 14
13950 22 1
13951 34 1
13952 3 1
13952 12 1
13952 15 1
13953 2 1
13953 3 11
13953 24 21
13953 34 18
13954 34 1
13955 3 1
13955 12 1
13955 18 1
13955 24 1
13955 26 1
13955 34 2
13955 38 1
13956 2 2
13956 3 5
13956 18 1
13956 34 7
13957 29 6
13957 30 3
13957 34 1
13958 1 1
13958 3 1
13958 29 1
13958 38 2
13959 3 1
13960 5 1
13960 24 5
13961 30 1
13961 34 1
13962 2 5
13962 3 17
13962 28 3
13962 34 24
13963 4 1
13963 5 2
13963 38 2
13964 2 1
13964 4 1
13964 5 2
13964 28 6
13965 1 2
13965 2 12
13965 3 35
13965 34 33
13966 29 22
13966 30 1
13967 21 1
13968 7 1
13969 3 1
13970 28 1
13970 38 1
13971 11 1
13971 15 13
13971 16 12
13971 17 18
13972 4 9
13972 5 44
13972 34 1
13972 38 47
13973 2 1
13974 18 1
13975 5 1
13975 18 1
13976 28 2
13977 28 12
13978 31 1
13979 5 1
13979 38 5
13980 38 1
13981 38 2
13982 10 1
13982 11 1
13982 22 1
13982 24 1
13983 18 1
13983 29 9
13984 38 1
13985 8 1
13985 10 1
13986 14 1
13987 2 1
13987 24 1
13987 34 2
13988 34 1
13989 7 7
13989 8 13
13990 7 1
13991 3 2
13991 20 1
13991 24 1
13992 22 1
13993 2 1
13993 3 1
13993 4 1
13993 7 2
13993 14 1
13993 18 1
13993 19 1
13994 8 1
13994 12 2
13994 14 1
13994 16 2
13994 18 1
13994 20 1
13994 21 1
13994 22 1
13994 24 2
13994 34 2
13994 38 2
13995 31 2
13996 12 1
13997 5 1
13998 28 1
13998 34 1
13999 24 1
14000 21 13
14000 22 16
14001 12 1
14002 12 66
14002 13 3
14002 14 50
14003 9 1
14004 2 1
14004 34 2
14004 38 1
14005 21 1
14006 29 2
14006 31 1
14007 30 1
14008 22 1
14009 38 1
14010 4 8
14010 5 25
14010 38 25
14011 24 12
14012 29 1
14013 18 1
14013 19 1
14014 5 1
14015 2 1
14015 3 1
14015 18 1
14015 19 3
14015 29 1
14015 34 3
14015 38 4
14016 34 1
14017 7 1
14018 34 1
14019 24 1
14020 19 1
14021 2 1
14021 5 1
14021 7 3
14021 8 9
14021 9 4
14021 10 7
14021 11 3
14021 12 1
14021 34 1
14022 1 1
14022 2 22
14022 3 30
14022 20 1
14022 34 37
14023 20 1
14024 2 1
14025 3 1
14026 18 3
14026 19 4
14026 31 1
14026 38 2
14027 5 1
14027 24 1
14028 3 3
14028 8 1
14028 12 1
14028 18 1
14028 19 1
14028 20 1
14028 21 1
14028 24 1
14028 26 1
14028 31 1
14028 34 3
14029 34 1
14030 34 1
14031 29 1
14032 19 1
14033 29 1
14034 1 1
14034 2 1
14034 34 1
14035 28 4
14036 2 1
14036 3 1
14036 12 2
14036 22 1
14036 24 2
14036 34 2
14036 38 1
14037 3 1
14037 4 13
14037 5 41
14037 12 1
14037 21 1
14037 38 36
14038 29 4
14038 30 1
14039 7 8
14039 8 13
14039 34 1
14040 5 1
14040 15 10
14040 16 3
14040 17 6
14041 7 1
14041 18 2
14041 19 1
14041 24 2
14041 28 1
14041 34 2
14041 38 1
14042 3 1
14042 38 1
14043 24 1
14044 19 1
14045 9 10
14045 10 6
14045 11 12
14046 18 1
14047 29 9
14047 30 4
14048 19 1
14049 3 1
14049 19 1
14049 28 1
14049 38 1
14050 31 1
14050 34 1
14051 5 1
14052 2 2
14052 3 1
14052 22 1
14052 29 7
14053 1 2
14053 2 16
14053 3 23
14053 5 1
14053 34 42
14054 2 1
14055 4 1
14056 28 10
14057 31 1
14058 18 1
14059 1 2
14059 2 26
14059 3 55
14059 10 1
14059 29 1
14059 34 64
14059 38 1
14060 31 5
14060 38 1
14061 34 1
14062 38 1
14063 31 7
14063 32 1
14064 7 5
14064 8 9
14065 2 1
14065 31 12
14066 30 1
14067 3 1
14068 28 1
14069 5 1
14069 38 2
14070 3 2
14071 24 15
14071 29 3
14072 34 1
14073 3 1
14074 2 7
14074 3 11
14074 4 1
14074 5 1
14074 9 1
14074 15 1
14074 18 1
14074 22 1
14074 24 1
14074 28 1
14074 29 1
14074 34 18
14074 38 3
14075 4 2
14075 5 12
14075 9 5
14075 10 2
14075 11 4
14075 34 2
14075 38 15
14076 2 1
14076 34 2
14077 8 1
14078 8 1
14079 7 12
14079 8 33
14080 2 1
14081 7 6
14081 8 11
14082 31 5
14083 29 1
14084 29 1
14085 12 1
14086 22 1
14086 24 6
14087 4 1
14087 22 1
14087 24 8
14088 11 1
14089 2 1
14089 4 2
14089 5 6
14089 38 10
14090 2 6
14090 3 32
14090 34 22
14091 19 1
14091 21 1
14092 20 1
14092 29 18
14092 30 2
14093 12 1
14094 38 1
14095 34 1
14096 21 7
14096 22 6
14097 24 3
14097 29 1
14098 24 1
14099 3 3
14100 3 1
14100 5 5
14100 20 1
14100 38 4
14101 9 17
14101 10 31
14101 11 19
14102 3 1
14103 12 1
14103 14 2
14104 18 9
14104 19 18
14104 20 8
14105 4 3
14105 5 11
14105 38 11
14106 2 1
14106 3 2
14106 5 3
14106 11 1
14106 20 2
14106 24 2
14106 26 1
14106 30 1
14106 34 1
14106 38 2
14107 31 1
14108 12 1
14109 5 3
14109 19 5
14109 38 4
14110 34 1
14111 18 1
14112 18 1
14113 9 2
14113 10 3
14113 11 4
14114 3 1
14115 5 1
14116 3 1
14117 31 1
14118 34 1
14119 10 1
14119 18 1
14119 19 1
14119 21 1
14119 26 1
14119 29 1
14119 31 1
14119 34 3
14119 38 1
14120 20 1
14121 29 1
14122 5 1
14122 18 14
14122 19 24
14122 20 10
14123 22 1
14124 31 24
14125 18 1
14126 34 1
14127 2 9
14127 3 24
14127 34 44
14128 18 17
14128 19 26
14128 20 5
14129 3 1
14130 38 1
14131 38 1
14132 29 11
14132 30 1
14132 38 2
14133 29 1
14134 24 12
14134 38 1
14135 38 1
14136 34 1
14137 24 4
14138 34 1
14139 29 17
14139 30 2
14140 15 4
14140 16 1
14140 17 4
14140 29 1
14141 28 6
14141 38 1
14142 38 1
14143 29 16
14144 1 1
14144 2 7
14144 3 14
14144 5 1
14144 34 12
14145 29 1
14145 34 1
14146 3 1
14146 34 2
14147 18 1
14148 2 3
14148 3 2
14148 5 1
14148 9 1
14148 21 1
14148 24 2
14148 29 1
14148 31 2
14148 34 1
14149 19 1
14150 38 1
14151 18 15
14151 19 20
14151 20 12
14152 5 1
14152 24 2
14153 2 7
14153 3 16
14153 34 13
14154 5 1
14155 2 1
14155 29 4
14156 10 1
14157 2 2
14157 5 1
14157 8 1
14157 11 1
14157 17 1
14157 18 1
14157 19 2
14157 20 1
14157 29 1
14157 34 3
14157 38 2
14158 3 1
14158 18 1
14159 23 1
14159 24 10
14160 22 1
14161 24 1
14162 8 1
14163 21 2
14163 22 6
14163 34 2
14164 7 3
14164 8 20
14165 19 1
14166 15 6
14166 16 4
14166 17 11
14167 24 1
14167 29 2
14168 8 1
14169 5 1
14170 2 7
14170 3 22
14170 28 1
14170 34 18
14171 34 1
14172 18 1
14173 34 1
14174 14 1
14174 34 1
14175 20 1
14176 2 1
14176 18 36
14176 19 32
14176 20 8
14176 34 1
14177 4 4
14177 5 28
14177 38 26
14178 24 5
14178 29 1
14179 15 1
14179 17 1
14180 38 1
14181 3 2
14181 11 1
14181 14 1
14182 29 1
14183 29 1
14184 29 27
14184 30 3
14185 34 1
14186 24 1
14187 19 1
14188 2 1
14189 22 2
14190 12 1
14190 23 1
14190 34 1
14191 2 1
14192 2 1
14192 29 6
14193 3 1
14194 5 1
14195 2 2
14195 12 1
14195 23 1
14195 24 2
14195 38 1
14196 34 1
14197 14 1
14198 21 22
14198 22 14
14198 34 1
14199 31 3
14200 5 1
14201 10 1
14202 24 9
14203 34 1
14204 7 7
14204 8 9
14204 34 1
14205 29 1
14206 4 4
14206 5 7
14206 38 21
14207 24 1
14208 9 3
14208 10 6
14208 11 12
14208 19 1
14209 19 1
14210 24 3
14211 3 1
14212 3 1
14213 3 1
14213 10 1
14213 29 1
14214 19 1
14215 38 1
14216 4 4
14216 5 32
14216 31 1
14216 38 30
14217 34 1
14218 5 1
14219 2 1
14219 24 1
14219 28 4
14220 18 1
14221 29 20
14221 30 1
14222 12 1
14222 17 1
14222 18 10
14222 19 8
14222 20 4
14222 24 1
14223 24 2
14224 3 2
14224 34 2
14225 21 1
14225 25 1
14226 2 1
14226 3 1
14226 8 1
14226 12 4
14226 14 8
14226 18 1
14226 21 1
14226 24 1
14226 31 1
14226 38 1
14227 5 1
14228 10 1
14229 26 1
14230 19 1
14231 31 1
14232 18 2
14233 26 1
14234 9 1
14235 21 32
14235 22 27
14235 24 4
14236 2 1
14236 17 1
14236 38 2
14237 38 2
14238 31 2
14239 5 1
14240 4 2
14240 5 20
14240 38 37
14241 29 1
14242 17 1
14242 38 1
14243 20 1
14243 30 1
14244 14 1
14244 31 1
14245 2 1
14246 13 1
14247 24 1
14248 12 2
14249 29 1
14250 34 1
14251 38 1
14252 38 1
14253 3 1
14254 2 1
14254 3 2
14254 8 1
14254 19 4
14254 24 2
14254 28 1
14254 29 1
14254 34 1
14255 3 1
14257 3 1
14258 10 6
14258 11 8
14259 3 1
14260 18 30
14260 19 32
14260 20 4
14261 19 1
14262 17 1
14263 29 4
14264 38 1
14265 4 1
14265 5 6
14265 38 5
14266 34 1
14267 24 13
14268 24 2
14269 3 1
14269 7 1
14269 8 3
14270 4 1
14270 5 1
14271 21 1
14272 19 1
14273 3 2
14274 2 1
14275 26 1
14276 3 1
14277 8 1
14278 2 1
14278 9 1
14278 14 2
14278 18 2
14278 22 1
14278 31 1
14278 34 2
14279 38 1
14280 5 1
14280 14 1
14280 17 1
14280 24 1
14281 10 1
14282 5 1
14282 26 1
14282 34 1
14283 3 1
14283 15 1
14284 4 7
14284 5 25
14284 38 20
14285 21 1
14285 22 2
14286 18 1
14287 28 12
14288 34 1
14289 3 2
14289 4 1
14289 5 1
14289 14 1
14289 22 1
14289 38 1
14290 9 23
14290 10 32
14290 11 18
14291 3 1
14291 17 1
14292 2 1
14292 3 1
14292 19 1
14292 29 1
14293 3 1
14293 20 1
14293 26 1
14293 28 1
14293 29 1
14293 31 1
14293 38 4
14294 28 1
14295 12 14
14295 14 10
14296 17 1
14297 8 1
14298 11 1
14299 18 32
14299 19 36
14299 20 15
14300 5 1
14301 34 1
14302 7 2
14302 8 12
14303 20 1
14303 24 6
14304 4 1
14304 15 7
14304 16 4
14304 17 1
14305 14 2
14305 21 6
14305 24 1
14306 3 1
14306 17 1
14307 12 4
14307 14 3
14307 34 2
14308 24 1
14308 28 2
14309 31 3
14310 19 1
14311 2 1
14312 26 6
14312 29 5
14313 29 1
14314 3 1
14314 34 1
14315 14 1
14316 9 18
14316 10 23
14316 11 25
14317 4 4
14317 5 22
14317 16 1
14317 38 32
14318 38 1
14319 21 1
14320 10 1
14321 28 1
14321 34 1
14322 29 1
14323 2 10
14323 3 11
14323 24 4
14323 29 12
14323 34 7
14324 31 4
14325 5 1
14325 24 1
14326 22 1
14327 38 1
14328 12 1
14328 15 1
14328 34 1
14329 16 1
14329 17 1
14330 3 1
14330 34 2
14331 4 1
14331 5 5
14331 38 3
14332 23 1
14333 2 1
14333 14 1
14333 19 2
14333 29 1
14333 34 1
14334 19 1
14335 29 1
14336 21 1
14337 5 1
14338 21 1
14338 23 1
14338 24 17
14339 28 1
14340 2 1
14341 29 5
14341 30 1
14341 38 1
14342 4 8
14342 5 32
14342 17 1
14342 38 32
14343 1 1
14343 2 14
14343 3 15
14343 34 12
14343 38 1
14344 24 5
14344 31 1
14345 34 1
14346 3 1
14346 4 1
14346 17 1
14346 19 2
14346 20 1
14346 24 1
14346 29 1
14346 34 1
14347 19 1
14348 10 1
14349 3 1
14350 34 2
14351 3 1
14352 38 1
14353 15 1
14353 17 1
14353 34 1
14354 34 1
14355 12 2
14355 14 2
14356 21 14
14356 22 14
14357 3 1
14358 3 1
14358 34 1
14359 4 14
14359 5 36
14359 38 49
14360 2 1
14360 3 3
14360 5 1
14360 9 1
14360 12 1
14360 17 1
14360 18 1
14360 24 1
14360 28 1
14360 29 1
14360 34 2
14360 38 3
14361 28 5
14362 5 1
14363 29 1
14364 29 9
14365 17 1
14365 29 1
14366 5 2
14366 38 4
14367 7 1
14368 31 1
14369 28 2
14370 38 1
14371 34 1
14372 21 1
14373 7 26
14373 8 42
14373 34 1
14374 18 1
14375 8 1
14376 12 2
14376 14 1
14377 2 1
14377 14 1
14378 5 1
14379 34 1
14380 38 1
14381 34 1
14382 24 1
14383 3 1
14384 3 1
14384 8 1
14384 14 2
14384 15 1
14384 24 1
14384 29 2
14384 31 1
14384 34 5
14385 2 18
14385 3 15
14385 29 1
14385 34 14
14386 3 1
14387 3 1
14388 34 1
14389 22 1
14389 23 2
14389 24 25
14389 38 1
14390 22 1
14391 21 7
14391 22 4
14392 15 1
14392 31 3
14393 2 1
14393 3 1
14393 24 1
14394 7 1
14394 8 4
14395 21 1
14395 29 1
14396 3 1
14396 38 1
14397 4 1
14397 12 1
14397 15 1
14397 29 14
14397 30 1
14398 2 1
14398 11 2
14399 16 1
14400 2 1
14400 3 1
14400 5 1
14400 12 1
14400 19 1
14400 20 1
14400 26 1
14400 29 1
14400 34 2
14400 38 1
14401 3 1
14402 29 2
14403 5 2
14404 7 7
14404 8 14
14404 29 9
14404 30 1
14404 38 1
14405 5 1
14406 34 1
14407 5 1
14407 9 1
14408 7 1
14409 3 1
14410 21 8
14410 22 5
14411 26 1
14412 12 1
14413 14 1
14414 19 1
14414 29 9
14415 19 2
14416 34 1
14417 24 3
14417 31 2
14418 38 1
14419 3 1
14419 5 2
14419 15 1
14419 22 2
14420 2 2
14420 3 1
14420 4 1
14420 5 1
14420 14 1
14420 17 1
14420 18 3
14420 24 2
14420 29 2
14421 18 1
14422 14 1
14423 34 1
14424 31 1
14425 22 1
14426 24 1
14426 26 1
14427 20 1
14428 38 1
14429 4 2
14429 5 4
14429 21 4
14429 22 3
14429 38 5
14430 34 1
14431 18 1
14432 19 1
14432 21 2
14433 8 1
14434 2 1
14434 3 1
14434 4 1
14434 11 1
14434 25 1
14434 26 8
14435 38 1
14436 29 2
14436 30 1
14437 20 1
14437 29 1
14438 34 1
14439 38 1
14440 7 1
14441 2 8
14441 3 7
14441 34 12
14442 17 1
14443 18 1
14444 3 1
14444 8 1
14445 2 1
14445 22 1
14445 29 2
14445 38 1
14446 28 1
14447 8 1
14447 18 1
14447 38 1
14448 2 6
14448 3 11
14448 18 1
14448 34 14
14449 18 1
14449 19 1
14450 29 1
14451 19 1
14452 29 1
14453 22 1
14453 34 1
14454 5 1
14455 38 1
14456 8 1
14456 19 3
14456 31 1
14456 34 1
14457 10 1
14457 18 1
14458 18 1
14458 24 1
14458 31 9
14458 34 1
14459 8 1
14460 12 6
14460 14 4
14461 28 2
14462 9 5
14462 10 10
14462 11 9
14462 26 1
14463 24 6
14463 29 1
14464 18 1
14465 3 1
14466 31 2
14467 2 1
14468 4 2
14468 18 1
14468 19 1
14468 21 1
14468 29 1
14468 34 1
14468 38 1
14469 3 1
14469 31 1
14470 18 1
14471 3 1
14471 29 1
14472 4 3
14472 5 19
14472 8 1
14472 38 16
14473 31 13
14473 34 1
14474 4 2
14474 5 5
14474 18 27
14474 19 25
14474 20 12
14474 29 3
14474 38 4
14475 19 1
14476 18 2
14476 19 8
14476 20 3
14477 12 1
14478 18 1
14479 29 1
14480 24 18
14480 38 1
14481 15 7
14481 16 3
14481 17 5
14481 19 1
14482 11 1
14483 3 1
14483 7 1
14483 15 1
14483 18 1
14483 19 1
14483 22 1
14483 34 4
14483 38 1
14484 28 1
14485 29 1
14486 38 1
14487 12 1
14487 38 1
14488 24 8
14488 38 1
14489 7 2
14489 8 2
14489 19 1
14490 19 1
14490 24 1
14491 3 1
14492 15 1
14492 18 6
14492 19 1
14492 20 2
14493 21 1
14494 9 1
14495 4 2
14495 5 11
14495 38 16
14496 17 1
14497 3 1
14498 5 2
14498 8 1
14498 18 1
14498 34 1
14499 24 17
14499 38 1
14500 29 26
14501 3 1
14501 24 6
14502 3 1
14502 5 1
14502 11 1
14502 14 1
14502 19 1
14502 31 1
14502 34 1
14503 5 1
14504 18 6
14504 19 11
14504 20 3
14504 29 1
14504 31 1
14505 15 1
14506 24 1
14507 19 1
14508 2 1
14508 10 1
14508 18 11
14508 19 17
14508 20 6
14509 3 3
14509 24 4
14509 34 2
14510 21 1
14511 9 1
14512 24 23
14512 29 15
14512 30 2
14513 34 1
14514 3 1
14514 24 9
14515 28 1
14516 24 8
14517 7 1
14517 8 1
14517 18 1
14518 2 48
14518 3 60
14518 34 65
14519 16 1
14520 2 1
14520 4 1
14520 19 1
14521 11 1
14522 11 1
14523 38 1
14524 21 8
14525 1 1
14526 1 1
14526 2 11
14526 3 17
14526 11 1
14526 14 1
14526 19 1
14526 24 1
14526 34 23
14527 28 1
14528 15 6
14528 16 3
14528 17 7
14528 20 1
14528 21 1
14528 34 1
14529 5 1
14530 4 2
14530 5 9
14530 38 11
14531 26 1
14532 19 1
14533 15 1
14534 31 12
14535 25 1
14535 31 2
14536 29 1
14537 4 1
14538 24 1
14538 29 1
14539 2 1
14539 28 2
14539 34 3
14540 19 1
14541 12 1
14542 29 1
14543 38 1
14544 29 1
14545 3 1
14546 24 3
14547 2 1
14548 24 3
14548 38 1
14549 14 1
14550 24 1
14550 29 16
14550 30 6
14551 19 1
14551 21 8
14551 22 13
14552 19 1
14552 31 1
14553 22 1
14554 24 6
14555 2 1
14556 3 1
14556 5 1
14556 26 1
14556 29 1
14556 30 1
14556 34 1
14557 3 1
14558 10 1
14558 31 16
14559 18 4
14559 19 3
14560 5 1
14561 2 1
14561 4 1
14561 5 7
14561 38 6
14562 4 1
14562 5 1
14562 24 1
14562 29 1
14562 34 2
14562 38 1
14563 21 1
14564 34 1
14565 20 1
14565 26 5
14566 24 16
14567 20 1
14568 34 1
14569 11 1
14569 22 1
14570 24 3
14571 17 1
14572 4 5
14572 5 33
14572 14 1
14572 38 39
14573 34 1
14574 7 1
14575 16 1
14575 18 1
14575 34 2
14576 34 1
14577 18 1
14577 38 1
14578 29 1
14578 31 1
14579 34 1
14580 18 2
14580 19 1
14580 20 1
14581 4 1
14582 18 29
14582 19 27
14582 20 11
14583 11 1
14584 4 3
14584 5 6
14584 38 6
14585 5 1
14585 19 1
14586 8 1
14586 18 1
14587 19 1
14588 24 1
14589 19 1
14589 34 2
14590 29 1
14591 4 1
14591 18 31
14591 19 42
14591 20 15
14592 2 5
14592 3 10
14592 20 1
14592 30 1
14592 34 24
14593 24 1
14594 20 1
14594 31 2
14595 5 1
14596 5 5
14596 38 1
14597 38 1
14598 3 1
14598 34 1
14599 29 1
14599 34 1
14600 34 1
14601 19 1
14602 31 2
14603 38 1
14604 3 1
14604 8 1
14604 18 2
14604 19 1
14604 24 1
14604 26 1
14604 34 2
14604 38 1
14605 19 1
14606 3 1
14606 7 1
14606 8 1
14607 34 1
14607 38 1
14608 5 1
14609 9 5
14609 10 10
14609 11 13
14609 24 1
14609 29 2
14610 2 1
14610 28 1
14611 2 6
14611 3 8
14611 34 8
14612 38 1
14613 29 4
14613 34 1
14614 21 1
14614 29 14
14614 30 2
14615 2 21
14615 3 37
14615 15 1
14615 19 1
14615 24 1
14615 34 40
14616 12 1
14617 28 1
14618 2 2
14618 3 1
14618 9 2
14618 10 2
14618 12 1
14618 21 1
14618 24 1
14618 28 1
14618 29 2
14618 34 3
14618 38 1
14619 2 7
14619 3 10
14619 34 17
14620 1 1
14620 2 4
14620 3 2
14620 34 3
14621 2 1
14621 3 1
14621 9 1
14621 14 1
14621 18 1
14621 19 1
14621 24 1
14621 29 2
14621 34 2
14622 15 6
14622 16 1
14622 17 2
14622 29 1
14623 2 1
14624 14 1
14625 5 1
14626 28 1
14627 3 1
14628 3 1
14629 21 1
14630 29 29
14630 30 3
14631 31 1
14632 15 1
14632 18 1
14632 22 1
14632 34 1
14633 31 7
14634 2 1
14635 3 1
14635 24 1
14635 38 1
14636 19 1
14636 24 1
14636 26 1
14637 19 1
14638 28 1
14639 15 2
14640 9 3
14640 10 6
14640 11 4
14641 3 1
14642 12 1
14643 34 1
14644 1 2
14644 2 19
14644 3 25
14644 34 29
14645 21 1
14646 3 2
14646 19 1
14646 24 2
14646 30 1
14646 34 2
14647 7 1
14647 19 1
14648 14 1
14648 19 1
14649 24 1
14649 29 1
14650 2 11
14650 3 13
14650 34 20
14651 14 1
14652 3 1
14653 31 5
14653 34 1
14654 15 35
14654 16 27
14654 17 25
14655 18 2
14655 19 1
14655 21 1
14656 34 1
14657 2 1
14658 2 1
14658 3 3
14658 4 1
14658 10 1
14658 11 1
14658 18 2
14658 19 1
14658 24 1
14658 28 1
14658 29 1
14658 34 1
14658 38 1
14659 19 1
14659 31 15
14659 34 1
14660 1 1
14660 2 4
14660 3 15
14660 4 1
14660 12 3
14660 18 1
14660 19 1
14660 20 1
14660 34 22
14661 10 1
14662 31 12
14662 33 1
14663 18 50
14663 19 43
14663 20 7
14663 29 1
14663 34 1
14664 19 1
14665 16 1
14665 17 1
14665 34 1
14666 18 12
14666 19 9
14666 20 2
14667 3 1
14667 4 2
14667 5 8
14667 20 1
14667 38 7
14668 12 21
14668 13 4
14668 14 8
14669 22 1
14669 25 1
14669 26 2
14670 2 1
14671 12 12
14671 14 9
14672 3 1
14673 18 21
14673 19 32
14673 20 3
14674 29 1
14674 31 3
14675 38 1
14676 29 5
14677 18 1
14678 2 1
14679 2 1
14680 2 1
14680 8 1
14680 12 2
14680 14 1
14680 18 1
14680 24 1
14680 26 1
14680 29 1
14680 30 1
14680 34 1
14681 18 1
14682 2 1
14682 24 5
14683 29 25
14683 30 1
14684 18 18
14684 19 18
14684 20 4
14685 4 9
14685 5 48
14685 29 2
14685 38 35
14686 34 1
14687 34 1
14688 1 1
14688 2 6
14688 3 13
14688 17 1
14688 34 25
14689 3 1
14690 34 1
14691 4 2
14691 5 2
14691 38 2
14692 3 1
14692 19 1
14692 28 3
14693 34 1
14694 5 1
14694 21 8
14694 22 8
14694 38 1
14695 1 1
14696 24 1
14696 26 3
14697 5 1
14697 21 2
14698 3 1
14699 12 30
14699 13 1
14699 14 14
14700 24 1
14701 2 9
14701 3 18
14701 10 1
14701 34 25
14702 14 1
14703 31 10
14704 3 1
14705 16 1
14706 3 1
14706 8 1
14706 18 13
14706 19 10
14706 20 4
14707 20 1
14707 31 6
14708 19 1
14708 34 1
14709 16 1
14710 12 1
14711 9 1
14711 10 3
14711 11 5
14712 3 1
14712 21 1
14712 29 11
14712 30 2
14713 2 1
14713 3 2
14713 5 1
14713 11 1
14713 12 1
14713 19 1
14713 29 1
14713 31 2
14713 34 1
14713 38 3
14714 5 1
14715 34 1
14716 4 5
14716 5 12
14716 14 1
14716 38 17
14717 38 1
14718 34 1
14719 34 1
14720 34 1
14721 2 1
14721 26 1
14721 29 4
14721 31 3
14722 2 1
14722 3 1
14722 5 1
14722 8 1
14722 38 3
14723 14 1
14723 24 14
14724 10 1
14725 9 2
14725 21 1
14726 2 1
14726 3 1
14726 5 1
14726 8 1
14726 34 2
14727 34 1
14728 24 1
14729 3 1
14730 3 1
14730 19 1
14730 21 1
14730 29 1
14730 30 1
14731 12 1
14732 3 1
14733 1 1
14733 2 19
14733 3 20
14733 10 1
14733 17 2
14733 34 42
14734 7 12
14734 8 26
14735 2 1
14735 4 1
14735 24 9
14735 29 1
14736 16 1
14736 17 1
14736 24 1
14737 34 1
14738 8 1
14739 7 8
14739 8 25
14739 34 1
14740 5 1
14740 24 1
14740 34 1
14741 5 1
14741 19 8
14741 20 2
14741 21 1
14741 29 1
14742 34 1
14743 34 1
14744 3 1
14745 38 1
14746 29 1
14747 1 1
14747 2 3
14747 3 8
14747 34 9
14748 9 1
14749 19 1
14749 29 1
14750 19 1
14751 3 1
14752 20 1
14753 18 29
14753 19 51
14753 20 21
14754 22 1
14754 29 2
14755 19 1
14756 38 1
14757 5 1
14758 15 1
14758 21 5
14758 22 4
14759 34 1
14760 38 1
14761 24 2
14762 22 1
14763 3 1
14763 19 1
14764 12 2
14765 34 1
14766 31 1
14767 20 1
14767 24 1
14767 28 3
14767 29 1
14768 3 1
14768 4 2
14768 5 18
14768 38 7
14769 29 13
14769 30 2
14771 3 1
14772 4 3
14772 5 18
14772 21 1
14772 38 8
14773 5 1
14774 18 1
14775 19 1
14776 19 1
14777 12 1
14778 14 1
14779 25 1
14779 26 7
14780 24 1
14780 34 1
14781 12 60
14781 13 3
14781 14 33
14782 5 1
14783 21 1
14784 21 34
14784 22 24
14785 21 1
14786 3 1
14787 21 1
14788 34 1
14789 11 2
14790 4 13
14790 5 14
14790 34 1
14790 38 39
14791 5 1
14791 18 1
14791 19 3
14791 20 2
14791 24 1
14792 11 1
14792 21 6
14792 22 11
14792 24 1
14792 31 1
14792 34 1
14793 18 1
14794 10 1
14794 11 1
14795 10 1
14796 2 2
14796 3 6
14796 34 6
14797 2 1
14797 3 1
14797 5 1
14797 9 1
14797 29 1
14797 34 1
14797 38 1
14798 2 9
14798 3 19
14798 34 29
14799 2 1
14800 3 1
14801 2 2
14801 19 2
14801 21 1
14801 26 2
14801 29 1
14801 31 2
14801 34 3
14801 38 1
14802 18 1
14803 14 1
14803 19 1
14804 3 1
14805 4 3
14805 5 19
14805 38 19
14806 2 1
14806 28 5
14807 29 1
14808 38 1
14809 3 1
14810 20 1
14811 24 1
14811 29 1
14811 34 1
14812 18 39
14812 19 31
14812 20 11
14812 21 1
14813 19 2
14814 24 1
14815 5 1
14816 10 2
14816 11 3
14817 29 1
14817 31 4
14818 12 1
14818 24 1
14819 2 9
14819 3 30
14819 28 4
14819 34 45
14819 38 1
14820 3 1
14821 2 1
14821 3 2
14821 34 1
14822 21 1
14822 22 5
14823 28 8
14823 29 2
14824 18 17
14824 19 31
14824 20 5
14825 12 1
14826 20 1
14827 28 1
14827 34 1
14828 17 1
14829 29 1
14830 18 1
14831 5 1
14831 10 1
14832 24 1
14833 5 1
14833 9 1
14833 22 1
14834 4 7
14834 5 14
14834 38 15
14835 12 1
14836 31 2
14837 5 1
14838 3 1
14838 10 1
14839 18 1
14840 28 1
14841 34 1
14842 1 1
14842 19 1
14842 29 1
14843 29 7
14844 24 1
14844 31 2
14844 34 1
14845 2 1
14845 12 1
14845 29 21
14845 30 3
14845 34 1
14846 2 1
14846 31 11
14847 3 1
14847 22 1
14847 24 25
14848 24 5
14849 4 17
14849 5 64
14849 38 74
14850 8 1
14851 21 1
14852 31 1
14853 34 1
14854 11 1
14855 9 2
14855 10 6
14855 11 8
14856 21 7
14856 22 4
14857 31 1
14858 14 1
14858 19 1
14858 24 1
14858 34 1
14859 8 1
14860 15 4
14860 16 2
14860 17 1
14860 38 1
14861 5 1
14861 31 1
14862 2 1
14862 9 1
14862 11 1
14862 22 1
14862 34 3
14863 34 1
14864 31 1
14865 34 1
14866 8 1
14867 18 23
14867 19 38
14867 20 12
14868 16 1
14869 5 1
14870 24 1
14871 29 5
14871 30 2
14872 31 3
14873 29 2
14874 7 4
14874 8 8
14875 5 1
14875 24 1
14875 38 1
14876 24 1
14877 29 1
14878 2 11
14878 3 11
14878 4 1
14878 19 1
14878 24 1
14878 34 12
14879 29 12
14879 30 2
14880 3 1
14880 8 1
14880 15 1
14880 18 1
14880 19 1
14880 24 1
14880 28 1
14880 29 1
14880 34 1
14881 10 1
14881 12 2
14882 29 1
14883 19 1
14884 31 9
14884 33 1
14885 5 1
14886 34 1
14886 38 1
14887 29 9
14887 30 4
14888 4 1
14889 18 1
14890 10 1
14891 2 1
14891 20 1
14891 31 1
14892 2 1
14892 10 1
14892 19 2
14892 31 1
14892 34 1
14893 2 2
14894 24 4
14895 14 2
14896 9 1
14897 18 1
14898 24 1
14898 29 1
14898 34 1
14899 34 1
14900 31 1
14901 3 1
14901 23 1
14901 24 11
14902 11 1
14903 31 1
14904 31 1
14905 1 1
14905 2 10
14905 3 14
14905 18 1
14905 34 16
14906 12 1
14906 29 5
14907 8 1
14908 5 1
14909 31 1
14910 12 1
14910 17 1
14910 24 1
14911 34 1
14912 18 1
14913 3 1
14913 10 1
14913 12 1
14913 28 2
14914 12 1
14915 19 1
14915 22 1
14916 5 1
14917 21 1
14918 28 9
14918 29 1
14919 5 1
14919 8 1
14919 19 1
14919 21 1
14920 3 2
14920 7 1
14920 38 1
14921 7 1
14921 34 1
14922 19 1
14922 24 1
14922 29 5
14922 31 1
14923 10 1
14924 4 1
14925 14 1
14926 11 1
14926 19 1
14926 21 11
14926 22 7
14926 34 1
14927 22 1
14928 28 1
14929 21 16
14929 22 11
14929 24 1
14930 24 1
14931 29 1
14932 15 1
14932 34 1
14933 19 1
14934 12 40
14934 14 29
14935 7 5
14935 8 6
14935 9 1
14936 16 1
14937 2 1
14938 21 11
14938 22 7
14939 38 1
14940 2 2
14940 5 2
14940 8 1
14940 15 2
14940 19 1
14940 24 3
14940 34 1
14940 38 2
14941 38 1
14942 34 1
14943 2 1
14943 8 2
14944 3 1
14945 15 1
14945 19 1
14946 3 1
14946 4 1
14947 26 3
14948 3 1
14949 5 1
14950 31 6
14951 2 11
14951 3 10
14951 24 1
14951 28 2
14951 29 3
14951 30 1
14951 34 13
14952 9 1
14953 24 1
14954 18 1
14955 29 10
14955 30 2
14955 38 1
14956 3 1
14957 7 2
14957 8 1
14957 21 1
14958 24 10
14959 22 1
14960 24 1
14961 29 25
14961 30 5
14961 34 1
14962 12 18
14962 14 4
14963 3 1
14964 28 1
14964 31 1
14964 34 1
14965 4 1
14966 19 1
14967 3 1
14968 24 13
14969 15 2
14969 24 1
14969 28 4
14970 24 1
14971 2 1
14971 3 1
14972 31 1
14973 22 1
14974 2 5
14974 3 16
14974 29 1
14974 34 11
14975 18 1
14976 2 1
14976 5 2
14976 7 1
14976 10 1
14976 18 2
14976 19 2
14976 20 1
14976 24 2
14976 29 1
14976 34 1
14976 38 1
14977 18 1
14978 34 1
14979 7 7
14979 8 24
14979 24 1
14980 1 1
14980 2 22
14980 3 46
14980 20 1
14980 34 41
14981 38 1
14982 19 1
14982 21 1
14983 12 1
14983 24 30
14984 10 1
14985 8 1
14985 19 1
14985 31 6
14986 4 1
14986 5 8
14986 29 1
14986 30 1
14986 38 10
14987 29 6
14988 3 1
14989 14 1
14989 34 1
14990 21 1
14991 3 1
14991 18 9
14991 19 18
14991 20 1
14992 21 1
14993 3 2
14993 4 1
14993 5 3
14993 30 1
14994 38 1
14995 19 1
14996 2 2
14996 3 5
14996 14 1
14996 34 16
14997 5 1
14997 28 1
14998 24 12
14999 3 1
15000 11 1
15000 12 1
15000 24 1
15001 15 1
15002 19 1
15003 31 1
15004 10 1
15005 29 1
15006 3 1
15006 19 1
15007 10 1
15008 11 1
15008 29 11
15008 30 2
15008 31 1
15009 3 1
15010 5 1
15011 9 1
15011 28 2
15012 21 1
15013 18 1
15014 38 1
15015 5 1
15015 7 1
15015 9 1
15015 10 3
15015 11 1
15015 31 1
15016 2 1
15016 14 1
15017 3 1
15017 24 1
15017 38 1
15018 19 1
15019 24 41
15020 2 10
15020 3 9
15020 34 24
15021 11 1
15021 29 6
15021 30 1
15022 3 1
15023 4 2
15023 5 9
15023 38 9
15024 2 1
15024 14 1
15024 16 1
15025 24 1
15026 21 1
15027 21 1
15027 22 1
15028 19 1
15029 30 1
15030 38 1
15031 4 1
15032 3 2
15032 7 1
15032 8 1
15032 12 1
15032 15 2
15032 18 5
15032 19 9
15032 20 2
15032 22 1
15032 24 2
15032 29 1
15032 34 2
15032 38 2
15033 5 1
15034 21 1
15035 18 1
15036 4 4
15036 5 31
15036 38 27
15037 12 11
15037 14 17
15037 34 1
15038 17 1
15039 15 1
15039 17 1
15040 34 1
15041 29 3
15042 3 1
15043 1 1
15043 2 23
15043 3 35
15043 34 49
15044 2 1
15045 19 1
15046 34 1
15047 5 1
15048 19 1
15049 18 16
15049 19 14
15049 20 4
15050 18 9
15050 19 13
15050 20 5
15051 2 7
15051 3 15
15051 16 1
15051 34 25
15052 34 1
15053 18 1
15054 1 1
15054 2 6
15054 3 14
15054 9 1
15054 34 22
15055 11 1
15056 2 1
15056 3 1
15056 8 1
15057 9 1
15057 10 4
15057 11 1
15058 5 1
15059 2 2
15059 7 1
15059 8 2
15059 15 1
15059 18 2
15059 19 2
15059 34 1
15060 3 1
15061 12 1
15062 22 1
15063 18 3
15064 29 1
15065 11 2
15065 15 45
15065 16 28
15065 17 36
15065 18 1
15066 15 1
15067 10 1
15067 15 1
15068 10 1
15068 29 11
15068 34 1
15069 16 1
15070 31 1
15070 38 1
15071 31 1
15072 28 2
15073 15 1
15074 24 7
15075 34 1
15075 38 1
15076 29 10
15076 30 3
15076 34 1
15077 14 1
15078 8 1
15079 2 1
15080 34 1
15081 23 1
15081 24 22
15082 31 4
15083 2 1
15083 11 1
15083 22 1
15083 24 1
15084 2 1
15084 3 1
15084 29 15
15084 30 2
15084 34 1
15085 24 1
15086 2 7
15086 3 16
15086 10 1
15086 24 13
15086 34 32
15087 8 1
15088 22 1
15088 24 22
15088 26 2
15088 31 6
15089 19 1
15090 19 1
15090 24 1
15091 18 1
15092 21 1
15093 19 1
15093 29 1
15094 3 2
15094 31 9
15094 38 1
15095 12 4
15095 14 4
15096 3 3
15096 5 3
15096 11 2
15096 15 1
15096 18 1
15096 19 3
15096 21 1
15096 24 1
15096 28 1
15096 29 3
15097 2 1
15098 5 1
15099 29 1
15100 38 1
15101 18 1
15101 19 1
15102 19 1
15103 1 1
15103 2 3
15103 3 6
15103 19 1
15103 34 6
15104 18 37
15104 19 34
15104 20 14
15104 24 1
15105 19 1
15107 3 2
15107 16 1
15108 2 5
15108 3 6
15108 24 1
15108 34 4
15109 3 1
15110 3 1
15110 19 1
15110 29 5
15110 30 1
15111 9 5
15111 10 18
15111 11 17
15111 20 1
15111 31 1
15112 9 1
15112 11 2
15112 29 1
15112 31 1
15112 34 1
15113 2 1
15114 34 1
15115 31 11
15116 8 1
15116 34 1
15117 26 2
15118 3 1
15118 7 3
15118 8 9
15119 5 1
15120 18 1
15120 19 3
15120 20 1
15121 2 1
15122 20 1
15123 3 1
15124 2 1
15125 5 1
15126 12 2
15126 13 1
15127 1 1
15128 29 1
15128 31 14
15129 18 1
15130 34 1
15131 5 1
15131 34 1
15132 24 1
15133 12 1
15134 29 7
15134 30 2
15135 2 1
15135 3 1
15136 24 2
15136 34 1
15137 19 1
15138 24 1
15139 3 1
15139 24 1
15139 28 5
15139 29 1
15140 3 1
15140 12 13
15140 14 11
15140 19 20
15140 20 3
15141 3 1
15142 29 1
15143 8 1
15144 2 1
15145 4 3
15145 5 19
15145 34 1
15145 38 25
15146 20 1
15147 10 1
15148 19 1
15148 34 1
15149 31 1
15150 12 1
15150 34 2
15151 5 1
15152 29 3
15153 18 2
15154 21 19
15154 22 17
15155 14 1
15155 24 4
15156 3 1
15156 12 10
15156 14 9
15156 34 1
15157 38 1
15158 24 1
15159 2 1
15159 18 20
15159 19 49
15159 20 11
15160 21 21
15160 22 12
15161 34 1
15162 2 1
15162 3 3
15162 24 1
15162 34 4
15163 31 20
15164 19 1
15165 3 1
15165 18 1
15166 12 3
15166 14 3
15166 24 1
15167 30 1
15168 8 1
15169 2 4
15169 3 13
15169 34 7
15170 31 2
15171 3 1
15172 34 1
15173 5 1
15173 12 15
15173 14 9
15173 28 5
15174 3 1
15175 16 1
15176 5 1
15177 34 1
15178 7 1
15179 28 2
15180 38 1
15181 12 1
15182 2 5
15182 3 22
15182 11 1
15182 34 33
15183 34 2
15184 12 1
15185 4 1
15185 5 3
15185 12 11
15185 14 8
15185 22 1
15185 38 4
15186 4 1
15186 26 2
15187 31 1
15188 12 1
15189 7 1
15190 2 1
15191 2 1
15192 31 2
15193 31 4
15194 2 1
15195 14 1
15195 18 1
15195 31 2
15195 34 1
15196 24 1
15197 19 1
15198 31 1
15199 34 1
15200 34 1
15201 2 1
15201 38 1
15202 34 1
15203 1 3
15203 2 15
15203 3 37
15203 31 1
15203 34 34
15204 12 1
15205 4 1
15205 5 8
15205 24 1
15205 38 7
15206 38 1
15207 7 1
15208 34 1
15209 12 1
15210 2 2
15210 3 4
15210 15 1
15210 19 1
15210 29 4
15211 28 4
15212 1 1
15212 2 22
15212 3 24
15212 34 56
15213 22 1
15214 12 2
15215 8 1
15216 5 1
15217 12 10
15217 14 10
15218 5 1
15219 16 2
15220 24 12
15221 24 1
15222 19 1
15223 3 1
15224 18 22
15224 19 32
15224 20 5
15224 21 1
15224 29 1
15224 31 1
15225 28 1
15226 4 3
15226 5 7
15226 38 8
15227 2 1
15227 3 1
15227 4 2
15227 5 1
15227 8 1
15227 15 1
15227 18 1
15227 21 3
15227 23 1
15227 24 2
15227 26 1
15227 31 1
15227 34 2
15227 38 2
15228 24 1
15228 28 3
15230 28 3
15231 20 2
15232 24 1
15233 3 1
15233 38 1
15234 12 4
15234 14 1
15235 5 2
15235 18 1
15235 38 2
15236 3 1
15236 38 1
15237 18 1
15238 12 1
15239 24 1
15239 29 5
15240 3 1
15241 18 1
15242 12 1
15243 8 1
15243 21 2
15243 22 2
15244 12 1
15245 15 15
15245 16 3
15245 17 7
15246 12 1
15246 21 8
15246 22 15
15246 29 1
15247 22 1
15248 18 1
15249 4 2
15249 5 10
15249 29 1
15249 38 21
15250 2 1
15251 31 1
15252 28 1
15253 4 1
15253 38 1
15254 14 1
15254 24 1
15254 29 17
15256 18 1
15257 5 1
15258 24 1
15258 34 2
15259 24 1
15259 38 1
15260 15 1
15261 17 1
15262 2 2
15262 3 2
15263 9 1
15264 38 4
15265 13 1
15266 8 1
15266 31 29
15267 19 1
15268 2 1
15269 24 5
15270 29 1
15271 34 1
15272 5 1
15273 5 1
15274 5 1
15275 17 1
15276 4 1
15276 5 2
15276 38 3
15277 2 1
15277 10 1
15278 15 1
15278 16 2
15278 17 2
15278 34 1
15279 24 17
15279 29 7
15280 31 1
15281 34 1
15282 8 3
15282 18 3
15282 19 12
15282 20 6
15283 24 1
15284 16 1
15285 24 4
15286 4 5
15286 5 31
15286 19 1
15286 38 38
15287 21 5
15287 22 6
15288 29 6
15289 24 10
15290 2 1
15291 28 5
15292 5 1
15293 18 1
15294 5 1
15295 19 1
15296 24 1
15297 2 1
15297 10 1
15297 11 1
15297 26 1
15298 31 3
15299 3 1
15299 4 1
15299 18 1
15299 29 1
15299 38 2
15300 34 1
15301 29 8
15302 29 4
15303 3 1
15304 1 1
15305 29 1
15306 24 2
15307 19 1
15308 4 3
15308 5 14
15308 38 14
15309 29 1
15310 38 1
15311 21 3
15311 22 1
15312 1 1
15312 2 21
15312 3 27
15312 31 1
15312 34 43
15312 38 1
15313 24 4
15314 2 1
15315 29 1
15315 31 2
15316 29 1
15317 5 1
15317 38 1
15318 5 1
15319 4 4
15319 5 12
15319 20 1
15319 38 17
15320 4 1
15320 8 1
15320 38 1
15321 3 3
15321 20 1
15321 29 2
15321 34 1
15322 23 1
15322 24 10
15323 24 1
15324 7 1
15324 8 1
15324 34 1
15325 21 13
15325 22 12
15326 18 1
15326 19 1
15327 19 1
15328 3 2
15329 16 1
15330 1 3
15330 2 14
15330 3 16
15330 34 16
15331 24 17
15332 29 1
15333 24 1
15334 38 1
15335 38 1
15336 4 9
15336 5 26
15336 28 1
15336 38 31
15337 18 2
15337 19 3
15337 20 1
15338 4 1
15339 3 1
15339 15 1
15340 16 1
15341 15 1
15342 14 1
15343 38 2
15344 3 1
15345 18 10
15345 19 19
15345 20 4
15346 20 1
15346 34 1
15347 2 5
15347 3 8
15347 10 1
15347 34 7
15348 2 10
15348 3 23
15348 34 35
15349 5 1
15349 18 1
15349 38 1
15350 2 2
15350 3 2
15350 8 1
15350 10 1
15350 12 1
15350 18 1
15350 19 2
15350 21 2
15350 24 1
15350 29 1
15350 34 2
15350 38 1
15351 4 2
15351 5 15
15351 38 14
15352 29 1
15353 19 1
15354 38 1
15355 21 2
15356 7 1
15356 8 2
15356 12 13
15356 14 11
15356 18 1
15357 29 18
15357 30 1
15357 38 1
15358 3 1
15358 5 1
15358 11 1
15358 18 3
15358 19 2
15358 21 2
15358 22 1
15358 24 1
15358 30 1
15358 34 1
15358 38 2
15359 12 1
15360 30 1
15361 3 5
15361 9 1
15361 18 1
15361 19 1
15362 8 1
15363 34 2
15364 29 1
15365 24 5
15366 9 2
15367 18 2
15367 19 1
15367 20 1
15368 5 1
15368 29 9
15368 30 2
15369 4 8
15369 5 25
15369 38 24
15370 5 4
15370 18 1
15370 38 5
15371 3 1
15371 34 1
15372 38 1
15373 14 1
15374 1 1
15374 2 23
15374 3 26
15374 34 28
15375 3 1
15376 5 1
15376 10 1
15376 13 1
15376 22 1
15377 3 1
15377 5 1
15377 19 1
15377 34 1
15378 7 1
15379 19 1
15379 24 9
15380 38 1
15381 24 1
15382 5 1
15382 21 1
15383 38 1
15384 3 4
15384 5 1
15384 12 1
15384 24 1
15384 34 4
15385 19 1
15386 15 1
15386 38 1
15387 24 17
15388 5 1
15388 29 1
15389 34 1
15390 15 2
15390 16 1
15390 17 2
15390 18 21
15390 19 31
15390 20 19
15391 18 35
15391 19 31
15391 20 18
15391 34 1
15392 17 1
15393 15 2
15393 16 1
15393 17 1
15394 38 1
15395 2 7
15395 3 12
15395 28 8
15395 34 13
15396 22 1
15397 18 1
15398 12 2
15398 14 1
15398 34 1
15399 12 2
15400 5 1
15400 34 1
15401 4 2
15401 38 3
15402 2 1
15402 3 2
15402 5 1
15402 7 1
15402 12 1
15402 21 1
15402 24 1
15402 29 1
15402 34 4
15402 38 1
15403 29 1
15404 31 1
15405 22 1
15406 31 1
15407 21 1
15408 29 1
15409 31 1
15410 18 1
15411 8 1
15412 29 11
15412 31 1
15413 7 7
15413 8 8
15414 21 8
15414 22 7
15415 38 1
15416 3 1
15417 26 1
15418 3 1
15419 7 2
15419 8 11
15419 12 1
15420 21 1
15420 38 1
15421 24 3
15422 31 2
15423 24 1
15424 18 18
15424 19 13
15424 20 3
15425 5 1
15425 24 13
15426 8 1
15426 24 1
15427 2 1
15427 3 11
15427 34 11
15428 34 1
15429 24 2
15430 3 1
15430 38 1
15431 2 1
15431 4 1
15431 5 1
15431 18 4
15431 24 1
15431 29 3
15431 31 1
15431 34 2
15431 38 2
15432 29 1
15432 38 1
15433 29 5
15433 30 1
15434 30 1
15435 25 1
15435 26 3
15435 29 1
15436 11 1
15437 3 1
15438 24 18
15439 12 1
15440 5 5
15440 8 1
15440 9 1
15440 19 1
15440 31 1
15440 38 9
15441 2 1
15441 3 1
15441 5 1
15441 17 1
15441 18 1
15441 19 1
15441 29 1
15441 31 1
15441 34 1
15441 38 2
15442 16 1
15442 24 8
15443 2 1
15444 29 13
15444 30 3
15445 21 2
15445 22 1
15445 34 1
15446 5 1
15446 9 1
15446 10 2
15446 11 2
15446 18 6
15446 19 3
15446 20 1
15447 21 1
15447 22 1
15448 2 1
15448 14 1
15449 10 1
15450 3 1
15450 4 3
15450 5 10
15450 22 1
15450 38 10
15451 5 1
15451 29 4
15452 3 1
15453 19 1
15454 5 1
15455 16 1
15456 12 6
15456 14 1
15457 12 1
15458 2 1
15459 28 4
15460 10 4
15460 11 6
15461 18 1
15462 29 1
15463 24 1
15464 2 4
15464 3 5
15464 34 11
15465 22 1
15466 10 1
15466 12 1
15466 19 1
15466 24 1
15467 2 3
15467 3 7
15467 10 1
15467 34 15
15468 21 17
15468 22 4
15469 19 1
15470 18 1
15471 7 1
15472 12 1
15473 2 16
15473 3 21
15473 24 10
15473 34 9
15474 34 2
15475 34 1
15476 3 1
15477 7 1
15477 8 3
15477 38 1
15478 5 1
15478 8 1
15478 18 1
15478 19 1
15478 20 1
15478 34 4
15479 38 1
15480 29 1
15481 12 1
15481 14 1
15482 21 1
15483 5 1
15483 38 2
15484 4 1
15484 5 4
15484 38 5
15485 20 1
15485 21 1
15486 3 1
15486 29 1
15487 2 2
15487 34 1
15488 31 1
15489 2 4
15489 3 12
15489 34 12
15490 3 1
15490 19 1
15490 22 1
15491 3 1
15491 34 1
15492 29 1
15493 31 4
15494 3 1
15494 18 1
15494 24 1
15494 38 1
15495 5 1
15495 12 2
15495 14 4
15495 18 1
15496 2 1
15496 7 1
15496 24 1
15496 29 1
15496 34 1
15497 31 2
15497 33 1
15498 31 1
15499 24 1
15500 24 3
15501 4 1
15501 5 5
15501 34 1
15501 38 4
15502 34 1
15502 38 1
15503 21 1
15504 24 16
15505 24 4
15506 12 10
15506 14 5
15506 21 1
15507 4 1
15507 5 21
15507 38 45
15508 24 1
15509 20 1
15510 31 1
15511 34 1
15512 16 4
15512 17 1
15513 8 2
15513 10 2
15513 11 1
15513 24 2
15513 28 1
15513 29 2
15513 34 2
15514 4 2
15514 5 1
15514 38 2
15515 3 1
15516 11 4
15516 18 1
15517 21 1
15517 31 1
15518 2 1
15519 7 1
15520 26 5
15521 5 1
15521 20 1
15522 18 1
15523 23 1
15523 24 6
15524 34 1
15525 28 1
15526 14 1
15526 18 2
15526 27 1
15526 31 6
15526 38 1
15527 2 1
15528 18 1
15528 19 2
15528 20 1
15528 34 1
15529 23 1
15529 24 5
15530 12 1
15530 19 1
15531 12 1
15532 19 1
15533 4 14
15533 5 26
15533 38 16
15534 3 2
15534 16 1
15535 4 4
15535 5 21
15535 38 15
15536 24 2
15537 19 1
15537 24 4
15537 26 1
15537 29 7
15537 31 8
15538 2 1
15539 26 2
15540 10 2
15540 12 1
15541 8 1
15541 14 1
15541 20 1
15541 24 1
15542 3 1
15542 9 3
15542 10 2
15542 11 4
15542 31 1
15543 34 1
15544 24 7
15545 19 1
15546 21 1
15547 12 2
15548 5 1
15549 5 1
15549 18 23
15549 19 12
15549 20 4
15550 3 1
15550 31 17
15551 21 14
15551 22 12
15552 29 1
15552 31 1
15553 8 1
15554 18 31
15554 19 38
15554 20 25
15555 21 12
15555 22 9
15556 34 1
15557 19 1
15557 38 1
15558 4 1
15559 12 1
15559 34 1
15560 29 30
15561 23 2
15561 24 18
15562 9 1
15562 29 1
15563 8 1
15563 24 1
15564 4 5
15564 5 20
15564 38 21
15565 5 1
15565 29 10
15565 30 1
15565 38 1
15566 34 1
15567 34 1
15568 38 1
15569 3 1
15570 24 6
15571 18 1
15572 18 5
15572 19 4
15572 20 1
15572 28 1
15573 2 1
15574 24 7
15574 28 1
15574 31 1
15575 20 1
15575 31 2
15576 29 1
15577 2 1
15577 3 2
15577 5 1
15577 18 2
15577 19 2
15577 24 1
15577 30 1
15577 31 1
15577 34 4
15578 7 1
15579 2 1
15579 18 1
15580 21 12
15580 22 10
15581 34 1
15582 31 1
15583 22 1
15583 30 1
15584 22 1
15585 4 3
15585 5 7
15585 16 1
15585 18 36
15585 19 40
15585 20 14
15585 38 9
15586 2 4
15586 3 13
15586 29 1
15586 34 31
15586 38 1
15587 4 1
15587 11 1
15587 12 2
15587 15 1
15587 16 1
15587 19 1
15587 21 1
15587 34 3
15587 38 1
15588 29 1
15589 5 1
15589 18 1
15589 31 1
15590 1 1
15590 2 4
15590 3 14
15590 34 18
15591 2 1
15591 18 1
15592 24 1
15593 28 1
15594 31 1
15595 19 1
15595 24 1
15595 27 1
15595 28 1
15596 24 1
15597 2 1
15598 2 19
15598 3 32
15598 34 37
15599 3 1
15600 18 1
15600 31 6
15600 33 1
15601 10 5
15601 11 1
15602 2 10
15602 3 33
15602 34 28
15603 31 15
15604 17 1
15604 34 1
15605 24 11
15606 34 1
15607 34 1
15608 3 1
15609 2 11
15609 3 22
15609 34 22
15610 7 4
15610 8 3
15610 21 3
15610 22 10
15611 11 1
15611 19 1
15611 34 1
15611 38 1
15612 24 10
15613 3 1
15614 3 1
15614 7 3
15614 8 4
15614 21 10
15614 22 15
15615 2 1
15616 9 23
15616 10 19
15616 11 17
15616 34 1
15617 28 2
15618 2 1
15619 19 1
15620 26 6
15620 31 4
15621 2 1
15621 3 2
15621 19 1
15621 29 6
15621 31 1
15621 34 3
15622 21 1
15623 34 1
15624 3 1
15625 24 2
15625 38 1
15626 16 1
15626 38 1
15627 11 1
15627 14 1
15628 5 1
15628 31 1
15629 29 1
15629 34 1
15630 3 1
15631 38 1
15632 1 3
15632 2 27
15632 3 87
15632 34 87
15632 38 1
15633 3 1
15634 12 5
15634 14 3
15634 29 1
15634 31 16
15635 5 1
15635 15 13
15635 16 8
15635 17 2
15635 21 7
15635 22 2
15635 38 4
15636 3 1
15637 16 1
15638 38 1
15639 34 1
15639 38 1
15640 24 2
15641 18 1
15642 29 1
15642 38 5
15643 5 1
15643 34 1
15644 9 2
15644 10 5
15644 11 2
15645 20 1
15646 29 7
15646 31 2
15647 5 1
15648 4 1
15648 18 1
15649 10 1
15649 24 21
15649 26 1
15649 38 1
15650 10 8
15650 11 5
15650 18 5
15651 24 1
15651 29 25
15651 30 1
15652 2 24
15652 3 42
15652 24 1
15652 34 54
15653 21 9
15653 22 11
15653 24 1
15654 14 1
15655 8 1
15655 9 1
15655 34 1
15656 31 8
15657 4 22
15657 5 82
15657 38 79
15658 3 1
15659 38 1
15660 20 1
15661 2 1
15661 4 1
15661 5 4
15661 7 1
15661 11 1
15661 12 1
15661 15 1
15661 19 2
15661 22 1
15661 28 2
15661 29 2
15661 38 1
15662 3 2
15662 4 1
15662 5 1
15662 10 1
15662 19 2
15662 21 2
15662 22 1
15662 34 3
15663 34 1
15664 3 2
15664 22 1
15665 24 3
15666 12 34
15666 14 14
15667 34 1
15668 38 1
15669 12 4
15669 14 2
15670 34 2
15671 18 2
15672 24 1
15673 9 19
15673 10 27
15673 11 19
15673 24 1
15674 5 1
15675 3 2
15675 5 3
15675 8 1
15675 11 1
15675 12 2
15675 14 1
15675 18 2
15675 19 2
15675 20 1
15675 24 2
15675 29 1
15675 34 1
15675 38 2
15676 29 1
15677 34 1
15678 9 4
15678 10 8
15678 11 5
15679 2 17
15679 3 20
15679 34 19
15680 3 1
15680 8 1
15680 11 1
15680 16 1
15680 18 2
15680 19 2
15680 21 1
15680 24 3
15680 29 1
15680 31 1
15680 34 2
15680 38 2
15681 19 1
15681 24 2
15682 18 1
15682 19 4
15682 20 1
15683 5 1
15684 5 1
15685 22 1
15686 3 1
15687 29 1
15688 24 1
15689 3 1
15689 18 1
15689 29 10
15690 28 21
15690 34 1
15691 31 1
15692 5 1
15692 18 1
15692 24 18
15693 22 1
15693 29 3
15694 8 1
15694 34 1
15695 11 12
15696 12 1
15696 34 1
15697 4 1
15698 19 1
15698 21 12
15698 22 20
15699 2 1
15700 34 1
15701 3 1
15702 19 1
15703 3 1
15703 34 1
15704 2 1
15704 3 1
15704 5 1
15704 12 1
15704 17 1
15704 21 1
15704 24 4
15704 34 1
15704 38 2
15705 17 1
15706 3 1
15707 19 1
15708 31 1
15709 2 32
15709 3 43
15709 28 2
15709 34 53
15710 11 1
15711 1 1
15711 2 9
15711 3 33
15711 34 34
15712 1 1
15712 2 7
15712 3 12
15712 34 18
15713 38 1
15714 34 1
15715 12 10
15715 14 6
15716 38 1
15717 28 1
15718 3 1
15719 24 1
15719 29 8
15719 30 1
15720 10 1
15720 26 1
15721 21 1
15722 29 1
15722 38 1
15723 21 1
15724 19 2
15725 12 2
15725 14 1
15726 7 4
15726 8 3
15726 21 3
15727 29 12
15727 34 1
15728 15 1
15729 24 5
15730 12 1
15731 12 1
15731 34 1
15732 3 1
15733 34 1
15734 5 1
15735 2 3
15735 3 19
15735 34 24
15736 28 2
15737 24 1
15737 31 2
15737 38 1
15738 10 1
15738 18 3
15739 4 1
15739 38 2
15740 24 1
15740 34 1
15741 18 8
15741 19 14
15741 20 4
15742 24 5
15743 5 1
15743 10 1
15743 20 1
15744 2 2
15744 3 1
15744 21 1
15745 31 2
15746 3 1
15746 5 1
15746 8 1
15746 19 2
15747 4 5
15747 5 31
15747 34 2
15747 38 26
15748 18 23
15748 19 18
15748 20 15
15749 2 1
15750 38 1
15751 18 1
15752 1 1
15752 3 5
15752 34 4
15753 3 1
15753 21 1
15753 34 1
15753 38 3
15754 21 1
15755 28 9
15756 28 3
15757 28 1
15758 28 5
15759 29 1
15760 9 1
15761 3 1
15761 22 1
15762 2 1
15763 3 1
15763 4 1
15764 19 1
15764 20 1
15765 5 1
15765 9 1
15766 8 1
15767 31 2
15767 33 1
15768 31 1
15769 2 8
15769 3 24
15769 34 25
15770 2 4
15770 3 2
15770 24 6
15770 34 3
15771 3 1
15771 14 1
15771 18 1
15771 30 1
15771 38 1
15772 18 2
15772 19 2
15772 20 1
15773 10 1
15773 28 5
15773 31 17
15774 9 1
15774 12 1
15774 24 1
15774 29 1
15774 34 1
15774 38 1
15775 19 1
15776 29 3
15777 18 14
15777 19 15
15777 20 7
15777 31 1
15778 2 2
15778 3 14
15778 34 16
15779 29 1
15780 31 4
15780 34 1
15781 24 1
15782 11 1
15782 19 1
15782 24 1
15782 31 1
15782 38 2
15783 12 1
15784 2 1
15784 3 1
15784 18 1
15784 19 1
15785 18 1
15786 3 1
15786 19 1
15787 19 12
15787 20 3
15787 24 1
15788 5 1
15789 5 1
15790 2 1
15790 18 4
15790 19 8
15790 20 4
15791 10 1
15792 34 1
15793 31 1
15794 4 5
15794 5 15
15794 38 26
15795 3 1
15796 24 1
15796 29 1
15797 24 8
15798 28 1
15799 16 1
15800 34 1
15801 21 10
15801 22 4
15802 12 1
15802 38 1
15803 10 1
15804 3 1
15805 2 6
15805 3 16
15805 31 1
15805 34 21
15805 38 1
15806 31 2
15807 24 1
15808 1 1
15808 2 17
15808 3 12
15808 26 4
15808 31 2
15808 34 12
15809 18 1
15810 24 20
15811 31 9
15811 38 1
15812 31 9
15813 29 5
15814 3 1
15815 24 1
15816 24 12
15817 21 1
15818 26 1
15819 38 1
15820 24 1
15821 22 1
15822 9 1
15822 10 1
15822 18 9
15822 19 7
15822 20 4
15823 14 1
15824 5 1
15825 14 6
15825 18 2
15825 19 2
15826 26 4
15827 24 1
15828 3 1
15829 31 15
15829 34 1
15830 19 1
15830 20 1
15831 4 1
15832 38 1
15833 18 1
15834 3 1
15834 14 1
15835 38 1
15836 1 1
15836 2 3
15836 3 10
15836 34 8
15837 24 8
15838 7 2
15838 8 5
15839 8 1
15840 24 2
15841 31 24
15841 33 1
15842 4 13
15842 5 57
15842 18 1
15842 19 1
15842 24 1
15842 38 56
15843 3 1
15843 34 1
15844 7 6
15844 8 2
15845 26 1
15846 4 3
15846 5 7
15846 38 10
15847 22 1
15847 29 6
15848 5 1
15848 7 3
15848 8 8
15849 23 1
15849 24 6
15850 21 6
15850 22 2
15851 5 1
15851 22 1
15852 21 25
15852 22 26
15853 3 1
15854 29 1
15855 29 1
15856 3 1
15857 2 1
15857 29 6
15858 34 1
15859 21 1
15860 1 2
15860 2 13
15860 3 26
15860 18 1
15860 34 19
15861 9 19
15861 10 21
15861 11 21
15862 8 1
15863 3 1
15863 9 17
15863 10 27
15863 11 22
15863 19 1
15864 23 1
15864 24 17
15865 21 1
15865 31 1
15866 2 1
15867 29 1
15868 38 1
15869 12 1
15870 34 1
15871 3 2
15871 34 2
15872 24 9
15873 24 10
15874 18 10
15874 19 10
15874 20 5
15875 34 1
15876 3 1
15876 7 2
15876 8 16
15877 38 1
15878 18 1
15878 34 1
15879 2 1
15880 2 12
15880 3 28
15880 29 1
15880 34 24
15880 38 1
15881 28 5
15882 20 1
15883 10 2
15883 21 30
15883 22 20
15883 29 1
15883 31 1
15884 4 1
15885 34 1
15886 3 1
15886 20 1
15887 5 1
15887 23 1
15887 24 4
15888 2 1
15889 18 1
15890 5 1
15890 34 1
15890 38 2
15891 38 1
15892 2 21
15892 3 37
15892 11 1
15892 34 44
15893 5 1
15893 38 1
15894 3 1
15894 22 1
15894 38 1
15895 8 3
15896 28 7
15897 3 1
15897 8 1
15897 21 1
15897 29 1
15897 34 1
15897 38 1
15898 15 1
15899 15 22
15899 16 20
15899 17 10
15900 2 5
15900 3 18
15900 34 13
15901 21 1
15902 24 1
15903 28 1
15904 9 4
15904 10 4
15904 11 5
15905 11 1
15906 28 1
15907 3 1
15907 15 1
15907 17 1
15908 5 1
15909 2 1
15909 3 1
15909 34 4
15910 7 10
15910 8 24
15910 19 1
15911 29 2
15912 2 1
15912 29 1
15912 38 1
15913 29 6
15914 10 1
15914 34 1
15915 10 1
15916 34 1
15917 25 1
15917 26 4
15918 22 1
15919 18 1
15920 3 1
15920 12 1
15920 18 1
15920 19 1
15920 22 1
15920 34 1
15920 38 1
15921 5 1
15921 8 1
15921 18 1
15921 29 1
15921 38 3
15922 4 8
15922 5 51
15922 38 55
15923 5 1
15923 28 2
15924 4 9
15924 5 33
15924 38 50
15925 4 3
15925 5 10
15925 38 25
15926 29 1
15927 31 1
15928 8 1
15929 29 21
15929 30 1
15930 29 2
15931 23 1
15932 38 1
15933 34 1
15934 4 2
15934 5 23
15934 10 1
15934 13 1
15934 34 1
15934 38 26
15935 38 1
15936 3 2
15936 29 4
15936 30 1
15936 31 4
15937 38 1
15938 38 2
15939 24 6
15940 34 2
15941 21 1
15942 28 5
15943 12 1
15944 4 1
15944 5 11
15944 38 11
15945 3 1
15945 5 1
15945 18 1
15945 34 1
15946 2 7
15946 3 16
15946 34 17
15947 12 4
15947 14 4
15947 19 38
15947 20 12
15948 34 1
15949 2 3
15949 3 2
15949 34 1
15950 3 1
15950 5 3
15950 38 2
15951 20 1
15952 15 1
15953 18 2
15953 24 15
15953 34 1
15954 21 1
15955 21 1
15956 3 2
15956 5 1
15956 11 1
15956 18 1
15956 19 1
15956 21 1
15956 22 2
15956 24 1
15956 28 1
15956 31 1
15956 34 3
15956 38 3
15957 29 1
15958 24 1
15959 24 1
15960 7 9
15960 8 18
15960 38 1
15961 29 1
15962 5 1
15963 3 3
15963 15 1
15963 22 1
15963 30 1
15963 31 1
15964 34 1
15965 3 1
15966 2 1
15966 24 4
15967 2 1
15968 10 1
15969 26 1
15970 5 3
15970 9 1
15970 38 1
15971 3 1
15972 21 2
15972 22 1
15973 5 6
15973 38 5
15974 2 1
15974 4 1
15974 24 1
15974 34 1
15975 24 1
15976 31 14
15977 9 1
15978 11 1
15978 19 1
15979 31 1
15980 2 13
15980 3 35
15980 10 1
15980 15 1
15980 34 49
15981 2 1
15982 4 1
15982 5 3
15982 12 1
15982 38 3
15983 28 1
15984 15 28
15984 16 22
15984 17 25
15984 18 6
15984 19 18
15984 20 7
15985 29 1
15985 34 2
15986 5 4
15986 38 4
15987 24 13
15988 38 1
15989 18 6
15989 19 15
15989 20 6
15990 12 2
15990 14 1
15991 20 2
15992 10 1
15992 29 1
15993 3 1
15994 9 1
15995 31 12
15995 34 2
15996 4 1
15996 18 1
15996 28 4
15996 38 1
15997 4 1
15998 8 1
15999 34 1
16000 34 1
16001 38 1
16002 30 1
16003 29 1
16003 38 1
16004 22 1
16004 24 9
16005 24 1
16006 21 1
16007 18 13
16007 19 10
16007 20 6
16008 5 1
16008 29 23
16008 30 1
16009 11 1
16009 24 1
16009 34 1
16010 3 1
16011 9 1
16011 10 7
16011 11 6
16012 14 1
16012 24 7
16012 29 1
16013 24 1
16014 18 1
16015 5 2
16016 3 1
16016 9 4
16016 10 4
16016 11 1
16016 38 1
16017 24 1
16018 11 1
16018 21 1
16019 24 1
16020 18 10
16020 19 8
16020 20 5
16020 24 1
16021 12 1
16021 24 1
16022 19 1
16023 18 30
16023 19 21
16023 20 9
16024 29 1
16025 3 1
16026 26 2
16027 5 1
16028 5 1
16028 11 1
16028 15 1
16029 5 1
16029 7 3
16029 8 7
16030 21 20
16030 29 17
16030 31 1
16030 34 1
16032 34 1
16033 24 1
16033 29 1
16034 22 1
16034 28 1
16035 2 1
16035 5 1
16035 9 3
16035 10 3
16035 11 3
16035 18 1
16036 5 1
16036 21 6
16036 22 6
16037 34 1
16038 38 1
16039 12 6
16039 14 8
16039 16 1
16039 31 1
16040 2 2
16040 3 6
16040 24 1
16040 34 1
16041 18 34
16041 19 27
16041 20 5
16042 31 1
16043 2 1
16043 7 1
16043 8 21
16044 38 1
16045 29 1
16046 2 4
16046 3 16
16046 34 39
16047 11 1
16048 5 1
16049 18 1
16050 19 1
16051 18 2
16051 20 1
16052 12 8
16052 14 1
16053 12 4
16053 14 3
16054 4 4
16054 5 18
16054 19 1
16054 38 14
16055 24 3
16056 1 1
16056 2 11
16056 3 28
16056 34 36
16057 1 3
16057 2 18
16057 3 30
16057 8 1
16057 18 1
16057 34 41
16058 31 2
16059 2 1
16059 20 1
16060 22 1
16061 3 1
16061 10 1
16061 34 1
16062 14 1
16062 18 1
16062 19 4
16063 34 1
16064 4 2
16064 5 4
16064 22 1
16064 38 1
16065 15 1
16066 29 10
16066 30 1
16066 38 2
16067 4 4
16067 5 25
16067 38 24
16068 12 7
16068 14 5
16068 31 1
16069 31 2
16070 24 1
16070 29 5
16071 5 16
16071 38 20
16072 9 6
16072 10 4
16072 11 8
16073 2 1
16073 4 1
16073 5 18
16073 38 18
16074 7 1
16075 3 2
16076 12 4
16076 14 2
16077 28 1
16078 4 6
16078 5 36
16078 38 37
16079 19 1
16080 3 1
16080 7 1
16080 8 3
16080 24 1
16080 38 1
16081 29 1
16082 19 1
16083 5 1
16084 4 6
16084 5 24
16084 38 26
16085 19 1
16085 22 1
16085 34 1
16085 38 1
16086 10 1
16087 8 1
16087 12 14
16087 14 9
16087 24 25
16087 34 1
16088 24 1
16089 29 5
16090 29 1
16091 29 5
16091 30 1
16092 24 4
16093 2 1
16093 5 3
16093 17 1
16093 24 1
16093 38 1
16094 19 1
16095 18 1
16095 20 1
16095 21 3
16095 22 4
16095 29 1
16095 38 1
16096 4 1
16096 5 17
16096 38 12
16097 29 8
16097 30 2
16098 21 1
16099 38 1
16100 5 4
16100 34 1
16100 38 1
16101 12 9
16101 14 3
16101 24 1
16102 16 1
16102 17 1
16103 17 1
16103 31 1
16103 38 1
16104 4 6
16104 5 18
16104 17 1
16104 38 29
16105 31 1
16106 34 1
16107 18 1
16108 31 1
16109 17 1
16110 2 1
16110 3 1
16110 5 1
16110 21 1
16111 31 2
16112 10 1
16113 2 1
16114 22 1
16114 24 1
16115 5 1
16116 32 1
16117 21 2
16118 22 1
16119 34 1
16120 8 1
16120 12 5
16120 14 3
16121 34 1
16122 29 1
16123 8 1
16124 3 1
16125 24 1
16126 31 2
16127 8 6
16128 4 6
16128 5 31
16128 38 19
16129 12 1
16130 5 1
16131 12 18
16131 14 9
16131 26 1
16131 31 5
16132 28 7
16133 12 1
16134 2 7
16134 3 22
16134 34 18
16135 4 1
16136 34 1
16137 29 1
16138 19 1
16139 38 1
16140 1 1
16140 2 10
16140 3 33
16140 34 38
16141 34 1
16142 34 1
16143 16 1
16144 3 1
16145 9 1
16145 10 2
16145 29 1
16146 1 1
16146 2 17
16146 3 27
16146 34 42
16147 21 2
16147 22 1
16147 24 1
16148 3 1
16149 2 1
16150 34 1
16151 11 1
16152 2 1
16153 2 3
16153 3 3
16153 34 8
16154 25 1
16154 26 1
16154 34 1
16155 5 1
16155 9 2
16155 11 1
16156 20 1
16157 24 1
16158 16 1
16160 21 1
16161 4 11
16161 5 20
16161 38 24
16162 5 1
16163 34 1
16164 4 2
16164 5 9
16164 38 14
16165 28 1
16166 22 1
16167 3 1
16167 5 1
16167 18 54
16167 19 53
16167 20 5
16168 5 1
16169 29 2
16169 30 1
16170 5 1
16170 18 1
16170 24 1
16171 28 1
16172 24 3
16173 29 3
16174 34 1
16175 3 1
16176 23 1
16176 24 6
16176 30 1
16176 31 6
16177 5 2
16177 8 1
16177 14 2
16177 15 1
16177 21 1
16177 29 1
16177 31 1
16177 34 2
16178 14 1
16179 9 1
16179 20 1
16180 3 1
16181 3 1
16182 3 1
16183 12 1
16184 14 1
16184 18 5
16184 19 2
16184 20 2
16184 38 1
16185 11 1
16186 12 6
16186 14 1
16187 3 1
16187 19 1
16187 24 1
16188 5 12
16188 24 1
16188 38 3
16189 38 2
16190 3 1
16190 14 1
16190 19 1
16190 34 2
16190 38 1
16191 5 1
16192 4 1
16192 5 18
16192 38 15
16193 2 1
16193 19 1
16194 3 1
16195 19 1
16195 22 1
16195 24 19
16196 29 1
16197 7 2
16197 8 2
16197 10 1
16198 18 13
16198 19 22
16198 20 10
16199 3 1
16199 28 2
16200 5 1
16200 15 2
16200 20 1
16200 21 1
16200 22 1
16200 24 2
16200 31 2
16200 34 2
16200 38 1
16201 34 1
16202 9 1
16202 10 2
16202 11 4
16203 34 1
16204 38 1
16205 22 1
16205 34 1
16206 2 1
16206 5 1
16206 12 1
16206 18 5
16206 19 7
16206 20 2
16206 21 1
16206 24 1
16207 2 1
16207 29 18
16207 30 1
16208 3 1
16208 5 1
16208 8 2
16208 9 1
16208 17 1
16208 26 1
16208 29 2
16208 31 1
16208 34 1
16209 2 2
16209 5 1
16210 4 2
16210 5 20
16210 31 1
16210 34 1
16210 38 6
16211 8 3
16211 10 1
16211 34 1
16212 12 1
16212 14 1
16213 2 4
16213 3 4
16213 24 4
16213 34 4
16214 34 1
16214 38 1
16215 2 17
16215 3 19
16215 18 36
16215 19 18
16215 20 19
16215 34 31
16216 5 1
16217 24 1
16218 9 2
16218 10 7
16218 11 2
16219 10 1
16219 11 2
16220 38 1
16221 29 1
16222 19 1
16222 28 6
16222 38 1
16223 12 14
16223 14 9
16224 31 1
16225 24 1
16226 18 1
16227 18 1
16227 31 1
16228 2 1
16229 2 1
16229 18 2
16229 19 1
16229 21 1
16229 38 1
16230 18 1
16231 3 1
16231 21 1
16232 29 1
16232 31 4
16233 28 1
16234 24 2
16234 34 1
16234 38 1
16235 15 1
16236 5 2
16237 28 5
16238 22 1
16239 2 1
16240 5 4
16240 38 5
16241 3 1
16242 12 1
16242 29 1
16243 3 1
16243 29 2
16243 30 2
16244 11 2
16244 15 1
16244 19 2
16244 31 1
16245 1 1
16245 2 20
16245 3 32
16245 5 1
16245 8 1
16245 34 30
16246 14 1
16246 34 1
16247 18 20
16247 19 26
16247 20 12
16247 34 1
16248 5 1
16249 34 1
16250 22 1
16250 29 5
16251 2 1
16251 3 2
16251 5 1
16251 12 1
16251 29 1
16251 38 2
16252 3 1
16252 28 2
16253 4 8
16253 5 16
16253 38 13
16254 21 8
16254 22 8
16255 24 10
16256 21 7
16256 22 14
16257 9 6
16257 10 15
16257 11 2
16257 38 1
16258 17 1
16258 30 1
16259 22 1
16260 34 1
16261 34 1
16262 8 1
16262 9 10
16262 10 9
16262 11 8
16262 12 4
16262 14 3
16262 18 1
16263 38 1
16264 4 5
16264 5 14
16264 38 25
16265 7 1
16266 5 1
16267 34 1
16268 3 1
16269 12 19
16269 14 8
16270 3 1
16271 24 12
16272 21 1
16273 26 1
16274 31 1
16275 3 1
16275 24 1
16276 29 2
16277 4 1
16278 2 6
16278 3 15
16278 34 13
16279 3 1
16280 29 3
16281 21 1
16282 29 1
16283 2 2
16283 3 1
16283 34 5
16284 5 9
16284 9 1
16284 17 1
16284 24 2
16284 29 2
16284 31 2
16284 38 4
16285 2 2
16285 3 10
16285 34 11
16286 1 1
16286 2 1
16286 34 1
16287 1 1
16287 2 10
16287 3 26
16287 34 32
16288 5 1
16288 34 1
16288 38 1
16289 3 1
16289 12 1
16289 14 1
16289 15 1
16290 5 1
16290 30 1
16290 34 1
16291 4 2
16291 5 17
16291 38 17
16292 3 1
16293 3 1
16294 5 1
16295 29 1
16296 22 1
16297 38 1
16298 18 1
16299 2 1
16300 15 22
16300 16 13
16300 17 18
16301 11 1
16302 34 1
16303 9 3
16303 10 1
16303 11 2
16304 7 1
16304 9 1
16304 14 3
16304 18 1
16304 19 1
16304 21 1
16304 22 1
16304 24 1
16304 29 6
16304 38 1
16305 2 1
16305 5 2
16305 38 2
16306 18 1
16306 24 1
16307 34 1
16308 28 4
16309 18 19
16309 19 28
16309 20 9
16309 21 1
16310 2 14
16310 3 43
16310 29 1
16310 34 64
16311 22 1
16312 4 13
16312 5 16
16312 34 1
16312 38 18
16313 23 1
16313 24 17
16314 3 1
16314 5 1
16315 4 3
16315 5 13
16315 18 1
16315 38 14
16316 5 1
16316 29 16
16316 30 1
16317 5 1
16317 16 1
16318 11 1
16318 29 1
16319 29 4
16320 18 1
16321 2 1
16321 18 2
16321 19 3
16321 20 1
16322 8 1
16323 11 1
16324 31 1
16325 4 1
16326 4 4
16326 5 16
16326 38 16
16327 20 1
16328 3 1
16329 34 1
16330 8 1
16331 23 2
16331 24 7
16331 29 9
16331 31 6
16332 21 1
16333 7 3
16333 8 2
16333 31 1
16333 34 1
16334 15 2
16335 8 3
16336 1 1
16337 29 4
16338 24 1
16339 21 1
16340 5 2
16340 11 1
16340 17 1
16340 18 1
16340 24 2
16340 30 1
16340 31 1
16340 34 2
16341 29 1
16342 24 22
16343 3 1
16344 14 1
16345 2 4
16345 3 5
16345 28 6
16345 29 1
16345 34 10
16346 18 1
16347 31 1
16348 9 1
16348 10 2
16349 12 1
16350 24 11
16351 34 1
16352 3 1
16353 14 1
16353 19 1
16353 20 1
16353 34 1
16354 34 1
16355 2 1
16356 2 1
16357 5 1
16357 34 1
16358 5 1
16358 24 1
16359 7 1
16360 3 1
16361 2 15
16361 3 29
16361 8 1
16361 34 27
16362 14 1
16362 20 1
16362 28 1
16363 1 1
16363 2 6
16363 3 11
16363 34 15
16364 3 1
16364 4 1
16364 5 2
16364 9 3
16364 10 5
16364 11 3
16364 14 1
16364 16 1
16364 21 2
16364 24 1
16364 34 2
16365 31 1
16366 31 2
16367 3 1
16367 5 1
16368 16 1
16369 38 1
16370 8 1
16370 29 15
16371 38 1
16372 2 7
16372 3 7
16372 34 10
16373 24 8
16374 31 1
16375 15 5
16375 16 2
16375 17 1
16376 14 1
16376 21 1
16376 38 1
16377 4 4
16377 5 18
16377 38 21
16378 15 1
16378 16 1
16378 24 1
16379 11 1
16379 15 1
16379 17 1
16379 22 1
16379 24 1
16379 30 1
16379 31 1
16379 34 1
16379 38 1
16380 3 1
16380 24 1
16381 18 5
16381 19 3
16381 20 2
16382 10 1
16382 18 1
16383 2 1
16383 3 1
16383 4 1
16383 19 1
16383 21 16
16383 22 11
16383 29 1
16384 19 1
16385 4 1
16385 16 3
16385 17 3
16385 38 1
16386 2 1
16386 5 2
16386 16 1
16386 17 1
16386 19 1
16386 21 1
16386 24 1
16387 4 1
16387 5 1
16387 38 6
16388 4 2
16388 5 1
16388 38 3
16389 34 1
16390 14 2
16390 18 1
16391 2 1
16391 3 4
16391 34 5
16392 24 1
16392 28 1
16393 38 1
16394 11 1
16394 21 11
16394 22 4
16395 4 1
16395 28 1
16396 1 1
16396 2 20
16396 3 30
16396 24 5
16396 34 30
16397 7 1
16397 19 1
16397 28 8
16397 29 1
16398 8 1
16398 11 1
16399 2 1
16399 3 1
16399 15 4
16399 16 2
16399 19 1
16400 34 1
16401 21 1
16401 38 1
16402 24 1
16403 15 1
16404 5 1
16405 34 1
16406 29 2
16407 29 1
16408 31 1
16409 11 1
16410 9 25
16410 10 31
16410 11 18
16410 12 1
16411 4 9
16411 5 19
16411 38 20
16412 28 4
16412 29 2
16413 31 6
16414 34 2
16415 21 1
16416 34 1
16417 28 1
16418 31 1
16419 3 3
16419 4 1
16419 5 3
16419 8 1
16419 10 1
16419 12 1
16419 19 1
16419 28 1
16419 29 2
16419 34 2
16420 34 1
16421 21 1
16422 15 7
16422 16 5
16422 17 8
16423 5 1
16424 24 1
16425 34 1
16426 10 1
16426 34 1
16427 29 1
16428 23 1
16428 24 24
16429 19 1
16429 21 14
16429 22 8
16430 12 3
16430 14 4
16430 31 1
16431 5 2
16431 22 1
16431 24 1
16431 28 1
16431 29 2
16431 34 1
16432 28 1
16433 38 1
16434 12 1
16435 34 1
16436 24 1
16437 34 1
16438 22 1
16439 24 26
16439 28 4
16439 38 1
16440 10 1
16440 11 1
16441 1 1
16441 2 11
16441 3 13
16441 29 1
16441 34 17
16442 12 2
16442 20 1
16443 15 1
16443 31 4
16444 3 1
16444 8 1
16445 3 1
16446 2 2
16446 3 1
16446 24 1
16446 34 3
16447 11 1
16448 24 1
16449 24 1
16450 8 3
16450 19 1
16451 24 1
16452 1 1
16452 34 3
16453 1 1
16453 2 29
16453 3 45
16453 34 68
16454 3 1
16455 28 3
16455 29 2
16455 30 2
16456 3 7
16456 34 6
16457 16 1
16457 17 1
16458 34 1
16459 24 1
16460 14 1
16461 38 1
16462 5 1
16462 10 1
16462 29 1
16463 3 1
16464 3 2
16464 38 1
16465 19 1
16466 4 1
16466 8 1
16466 19 1
16466 21 2
16466 34 1
16467 28 5
16467 29 3
16468 8 1
16468 24 17
16468 34 1
16469 24 1
16469 28 6
16470 38 1
16471 2 2
16471 34 3
16472 12 2
16473 23 1
16473 24 12
16473 34 1
16474 8 1
16475 34 1
16476 24 1
16477 7 2
16477 8 24
16477 15 1
16478 18 1
16478 19 1
16479 7 1
16479 8 2
16480 2 1
16481 5 1
16481 15 1
16481 19 1
16481 29 1
16482 24 6
16482 34 1
16483 4 1
16483 5 10
16483 24 1
16483 38 11
16484 3 1
16485 31 5
16485 33 1
16486 24 18
16487 38 1
16488 15 1
16489 3 1
16489 12 1
16489 20 1
16489 31 2
16489 38 1
16490 38 1
16491 24 10
16492 34 1
16493 5 1
16493 21 1
16493 26 2
16493 29 2
16493 38 1
16494 9 1
16494 22 1
16494 34 1
16495 19 1
16495 28 3
16496 18 5
16496 19 6
16496 20 4
16497 12 1
16498 15 1
16498 17 1
16499 34 1
16500 24 1
16501 14 1
16502 26 1
16503 12 1
16504 18 1
16505 2 1
16505 3 2
16505 8 1
16505 11 1
16505 12 1
16505 15 1
16505 21 1
16505 24 2
16505 31 1
16506 5 1
16507 2 2
16507 3 1
16507 5 1
16507 18 2
16507 19 1
16507 24 1
16507 29 1
16507 34 2
16507 38 2
16508 3 1
16509 24 1
16510 9 1
16510 38 1
16511 12 5
16511 14 1
16512 8 1
16512 19 1
16512 24 1
16513 5 1
16513 18 1
16513 21 1
16514 18 1
16515 15 1
16516 22 1
16517 18 89
16517 19 84
16517 20 29
16518 16 1
16519 29 26
16519 30 1
16520 18 1
16521 28 1
16522 3 1
16522 5 1
16522 8 2
16522 9 1
16522 19 2
16522 28 1
16522 29 1
16522 31 1
16523 3 1
16524 38 1
16525 5 1
16526 8 1
16526 24 1
16527 30 1
16528 12 1
16529 12 17
16529 14 16
16530 3 1
16530 24 12
16531 7 1
16532 34 1
16533 15 1
16534 31 1
16535 24 2
16535 29 1
16536 3 1
16536 19 1
16536 31 9
16537 21 1
16538 34 1
16539 1 2
16539 2 11
16539 3 26
16539 29 8
16539 34 31
16540 4 17
16540 5 38
16540 38 59
16541 3 1
16542 9 1
16543 18 11
16543 19 19
16543 20 8
16544 31 2
16545 20 1
16545 26 1
16546 3 1
16547 4 1
16547 28 5
16548 19 1
16549 34 1
16550 19 1
16551 34 1
16552 34 1
16553 18 1
16554 18 1
16555 10 1
16555 15 2
16555 16 1
16555 17 3
16555 18 1
16555 19 1
16555 29 1
16555 34 1
16556 5 1
16557 2 1
16557 22 1
16557 38 1
16558 11 1
16558 15 1
16559 12 4
16559 14 4
16559 22 2
16560 5 1
16560 22 1
16561 19 1
16562 3 7
16562 34 2
16563 4 1
16564 29 6
16565 3 1
16565 5 1
16565 8 1
16565 12 1
16565 15 1
16565 29 1
16565 31 1
16566 21 1
16566 24 6
16566 34 1
16567 3 1
16568 21 6
16568 22 13
16569 4 5
16569 5 33
16569 24 1
16569 38 21
16570 12 1
16571 19 1
16572 29 1
16573 9 18
16573 10 28
16573 11 19
16573 24 1
16573 26 1
16573 31 1
16574 15 1
16575 2 1
16575 3 1
16575 4 1
16575 5 2
16575 12 1
16575 21 1
16575 22 1
16575 24 1
16575 26 1
16575 28 1
16575 31 1
16575 34 1
16576 11 1
16576 14 4
16576 15 1
16577 3 1
16578 38 1
16579 29 8
16579 30 2
16580 14 1
16580 34 1
16581 10 1
16582 5 1
16583 2 1
16583 3 1
16583 20 1
16584 21 1
16585 3 1
16586 15 1
16587 15 1
16587 24 2
16587 29 2
16587 30 1
16587 34 1
16588 38 1
16589 19 1
16589 29 20
16589 30 2
16590 12 7
16590 13 1
16590 14 6
16590 34 1
16591 19 1
16592 18 1
16593 21 1
16594 34 1
16595 29 1
16596 14 1
16597 19 1
16598 20 1
16598 38 1
16599 8 1
16599 20 1
16599 26 1
16599 29 3
16599 30 1
16600 24 12
16601 34 1
16602 34 1
16603 12 15
16603 14 12
16603 24 2
16604 28 14
16604 38 1
16605 29 1
16606 2 6
16606 3 15
16606 5 1
16606 34 19
16606 38 1
16607 5 1
16608 2 2
16608 5 2
16608 18 1
16608 20 1
16608 24 1
16608 29 2
16608 31 1
16608 34 3
16608 38 1
16609 24 1
16610 3 1
16611 24 1
16612 12 1
16613 29 8
16614 38 1
16615 19 1
16616 24 1
16617 12 16
16617 13 1
16617 14 11
16618 24 1
16619 24 15
16620 5 1
16620 24 2
16621 22 1
16621 34 1
16622 24 13
16623 7 4
16623 8 18
16623 34 1
16624 17 1
16625 29 1
16626 9 8
16626 10 15
16626 11 13
16627 10 1
16628 1 1
16628 2 21
16628 3 32
16628 29 1
16628 34 66
16629 5 4
16629 38 2
16630 19 1
16631 8 1
16631 29 1
16632 38 1
16633 3 1
16633 38 1
16634 3 1
16635 5 1
16636 9 1
16636 18 26
16636 19 21
16636 20 3
16637 24 10
16637 27 1
16637 34 1
16637 38 1
16638 12 10
16638 13 1
16638 14 9
16639 12 1
16640 4 6
16640 5 18
16640 38 32
16641 5 1
16641 29 18
16641 30 2
16642 12 4
16642 14 3
16643 19 1
16644 31 1
16645 3 1
16646 24 1
16646 34 1
16647 5 1
16648 31 12
16649 24 21
16649 28 1
16649 31 1
16650 19 1
16650 21 3
16651 34 1
16652 21 10
16652 22 10
16653 4 3
16653 5 23
16653 18 17
16653 19 14
16653 20 6
16653 38 24
16654 15 3
16654 16 1
16654 17 2
16654 18 2
16654 19 2
16654 20 2
16655 20 1
16655 24 1
16656 15 1
16656 22 1
16656 28 1
16657 4 3
16657 5 43
16657 12 1
16657 24 1
16657 38 42
16658 31 1
16659 24 1
16660 1 1
16660 2 15
16660 3 17
16660 10 1
16660 34 14
16661 19 5
16661 20 1
16662 5 1
16663 11 1
16664 12 20
16664 14 6
16665 2 7
16665 3 7
16665 34 6
16666 12 24
16666 14 19
16667 24 1
16668 7 1
16668 21 1
16669 9 3
16670 12 23
16670 14 14
16671 38 1
16672 34 1
16673 8 1
16674 1 2
16674 2 16
16674 3 26
16674 24 3
16674 34 24
16675 34 1
16676 7 1
16677 24 1
16678 3 1
16679 2 1
16680 5 1
16680 8 1
16681 24 9
16681 26 5
16682 24 1
16683 2 21
16683 3 32
16683 31 1
16683 34 36
16684 34 1
16685 14 1
16686 16 1
16687 21 1
16688 14 1
16689 26 3
16690 3 1
16691 28 5
16692 38 1
16693 2 1
16693 24 1
16694 24 1
16694 34 1
16695 12 1
16696 34 1
16697 22 1
16698 2 1
16698 3 1
16698 4 1
16698 5 2
16698 8 2
16698 9 1
16698 10 1
16698 15 2
16698 18 1
16698 26 1
16698 29 1
16698 34 1
16698 38 2
16699 5 1
16699 18 1
16700 20 1
16700 22 1
16700 34 2
16701 4 1
16701 12 1
16701 18 1
16701 20 1
16701 21 1
16701 34 1
16701 38 3
16702 38 1
16703 21 17
16703 22 10
16703 34 2
16704 38 1
16705 20 1
16706 19 1
16707 19 1
16707 21 2
16707 22 1
16708 5 4
16708 38 3
16709 29 1
16710 5 1
16711 12 1
16711 28 3
16712 16 1
16712 17 2
16713 2 5
16713 5 3
16713 24 1
16713 26 1
16713 31 1
16713 34 3
16713 38 1
16714 29 5
16714 38 1
16715 31 1
16716 3 1
16716 21 1
16717 24 1
16717 34 1
16718 29 9
16718 30 1
16719 3 1
16719 10 1
16719 22 1
16719 34 1
16720 2 1
16720 21 1
16721 19 1
16722 29 24
16722 34 1
16723 14 1
16724 28 5
16724 29 5
16725 18 1
16725 24 32
16725 29 4
16726 18 18
16726 19 25
16726 20 2
16726 21 1
16727 21 1
16727 34 1
16728 2 8
16728 3 6
16728 18 1
16728 22 1
16728 29 5
16728 30 1
16728 34 4
16729 4 4
16729 5 9
16729 38 8
16730 24 5
16730 26 2
16731 20 1
16732 21 1
16733 5 1
16733 21 10
16733 22 11
16733 29 1
16734 5 1
16735 2 6
16735 3 11
16735 21 1
16735 34 10
16736 3 1
16737 3 2
16737 38 1
16738 14 1
16738 34 1
16739 3 2
16739 4 1
16739 5 23
16739 31 16
16739 38 38
16740 4 1
16741 19 1
16742 29 1
16742 31 3
16743 15 1
16744 24 1
16745 2 1
16745 31 2
16746 34 1
16747 5 1
16748 38 1
16749 8 1
16749 12 1
16749 34 1
16750 4 4
16750 5 20
16750 38 24
16751 29 3
16752 2 1
16753 7 1
16753 8 3
16753 15 6
16753 16 3
16753 17 6
16753 19 1
16754 29 11
16755 34 1
16756 5 1
16756 19 1
16757 24 4
16758 26 1
16759 29 1
16760 11 1
16760 29 6
16760 31 14
16760 34 2
16761 21 1
16761 28 2
16762 2 15
16762 3 35
16762 5 1
16762 19 1
16762 34 36
16763 2 2
16763 3 5
16763 34 7
16764 24 1
16764 34 1
16765 5 3
16765 38 1
16766 3 1
16767 5 1
16767 12 1
16767 14 1
16767 15 1
16767 29 1
16767 34 4
16768 20 1
16769 17 1
16770 2 6
16770 3 3
16770 10 1
16770 34 8
16771 11 1
16771 15 11
16771 16 3
16771 17 5
16771 21 1
16772 21 1
16773 17 1
16774 19 1
16775 19 1
16776 10 1
16777 2 1
16778 10 1
16778 34 1
16779 9 11
16779 10 4
16779 11 7
16780 2 2
16780 3 1
16780 5 1
16780 9 1
16780 11 1
16780 12 1
16780 19 1
16780 21 3
16780 24 1
16780 34 2
16780 38 1
16781 24 1
16782 29 1
16783 34 1
16784 31 4
16785 2 1
16785 29 13
16785 30 1
16786 7 5
16786 8 27
16786 18 49
16786 19 61
16786 20 12
16787 24 1
16787 28 4
16788 2 1
16789 29 1
16790 15 2
16790 31 1
16791 19 1
16792 3 1
16793 8 1
16794 38 1
16795 20 1
16796 7 10
16796 8 10
16797 2 1
16797 3 1
16797 5 3
16797 12 1
16797 19 2
16797 21 1
16797 22 2
16797 24 3
16797 29 1
16797 31 1
16797 38 1
16798 29 1
16799 11 2
16799 29 1
16800 29 12
16800 30 2
16801 7 1
16801 8 1
16801 24 1
16802 7 1
16802 8 2
16802 14 1
16803 3 1
16803 7 4
16803 8 2
16804 2 1
16804 3 1
16804 19 1
16804 22 1
16804 28 1
16804 29 2
16805 20 1
16806 34 1
16807 38 1
16808 28 1
16809 28 1
16810 10 1
16810 30 1
16811 19 2
16812 28 2
16812 38 1
16813 21 1
16814 3 1
16814 5 1
16814 9 1
16814 12 1
16814 14 1
16814 15 1
16814 19 1
16814 24 3
16814 28 1
16814 29 1
16814 31 1
16814 34 1
16815 2 2
16815 3 3
16815 34 1
16816 29 1
16817 19 1
16818 29 8
16819 29 2
16820 19 1
16821 18 2
16821 20 1
16822 29 1
16823 38 1
16824 18 26
16824 19 32
16824 20 15
16825 3 1
16826 19 1
16827 5 1
16827 12 2
16827 14 1
16827 29 2
16828 9 1
16829 29 18
16829 30 1
16830 2 1
16830 8 1
16830 34 2
16830 38 1
16831 7 2
16831 8 5
16832 3 1
16833 34 1
16834 3 1
16834 5 2
16834 8 2
16834 9 1
16834 11 1
16834 18 1
16834 22 1
16834 24 3
16834 38 2
16835 9 1
16835 10 1
16835 11 2
16835 17 1
16835 24 1
16836 2 3
16836 3 27
16836 34 42
16837 4 1
16837 28 10
16838 27 1
16838 28 6
16838 29 15
16838 30 1
16839 7 1
16840 24 1
16841 34 1
16842 2 1
16843 3 1
16844 3 1
16845 5 1
16845 29 2
16845 34 1
16846 2 12
16846 3 27
16846 24 12
16846 34 38
16847 7 6
16847 8 14
16848 18 1
16849 19 1
16849 23 1
16849 24 8
16850 14 1
16850 31 3
16850 34 1
16851 3 1
16851 7 6
16851 8 7
16852 12 1
16852 15 1
16853 24 1
16853 29 1
16854 16 1
16855 3 1
16855 5 1
16856 3 1
16856 5 1
16856 29 1
16857 19 1
16858 18 1
16859 3 1
16860 26 1
16861 38 1
16862 2 23
16862 3 34
16862 34 53
16863 9 1
16864 18 1
16865 7 4
16865 8 5
16865 19 1
16865 22 1
16866 3 1
16866 22 1
16867 3 1
16867 24 8
16868 4 1
16868 5 1
16868 18 4
16868 20 1
16868 21 1
16868 22 1
16868 24 1
16868 29 1
16868 34 4
16868 38 1
16869 3 1
16870 25 1
16870 38 1
16871 12 1
16871 19 3
16871 21 1
16871 22 2
16872 20 1
16872 24 23
16873 18 5
16873 19 10
16873 20 2
16873 34 1
16874 7 5
16874 8 16
16875 18 1
16876 8 1
16877 10 1
16878 3 1
16879 18 1
16879 25 3
16879 26 10
16880 10 1
16881 18 1
16882 18 3
16882 19 2
16882 20 1
16882 22 1
16883 38 1
16884 3 1
16884 7 1
16884 8 4
16885 4 1
16886 4 3
16886 5 11
16886 12 30
16886 14 17
16886 38 12
16887 29 19
16888 5 1
16888 38 1
16889 24 1
16890 9 5
16890 10 4
16891 28 1
16892 38 1
16893 21 1
16893 29 8
16894 5 1
16894 7 1
16894 12 1
16894 14 1
16894 18 1
16894 21 1
16894 34 3
16894 38 1
16895 16 1
16895 18 1
16895 38 1
16896 29 6
16897 21 1
16898 2 11
16898 3 34
16898 34 37
16899 26 1
16900 19 1
16900 38 1
16901 19 1
16901 34 1
16902 14 1
16902 19 1
16903 31 1
16904 38 1
16905 19 1
16905 29 7
16905 30 1
16905 38 1
16906 21 11
16906 22 9
16907 24 9
16907 34 1
16908 38 1
16909 15 1
16910 29 11
16910 34 1
16911 34 1
16912 7 1
16913 5 5
16913 38 11
16914 1 1
16914 2 16
16914 3 17
16914 34 19
16915 4 1
16916 24 1
16917 8 5
16918 38 1
16919 3 1
16920 5 1
16920 19 1
16920 29 9
16920 34 1
16921 18 4
16921 20 3
16922 2 3
16922 3 8
16922 19 1
16922 24 1
16922 34 9
16922 38 1
16923 19 1
16923 28 1
16924 2 1
16925 21 1
16925 22 1
16926 3 1
16926 7 1
16927 3 1
16928 18 53
16928 19 34
16928 20 11
16928 29 6
16929 4 13
16929 5 43
16929 18 1
16929 38 54
16930 38 1
16931 4 9
16931 5 42
16931 38 47
16932 19 1
16933 3 1
16934 20 1
16935 19 1
16936 5 1
16936 18 4
16936 19 10
16936 20 1
16937 8 1
16937 18 1
16937 28 1
16938 19 1
16939 38 1
16940 19 1
16941 21 6
16941 22 6
16942 30 1
16943 29 20
16943 30 1
16943 34 1
16944 21 1
16945 22 1
16945 24 4
16946 29 1
16947 4 2
16947 5 11
16947 15 1
16947 38 13
16948 2 1
16949 3 1
16950 34 1
16951 2 1
16951 10 1
16952 16 1
16952 29 1
16952 30 1
16953 5 1
16953 29 2
16953 38 2
16954 15 1
16955 34 1
16956 31 1
16957 2 1
16958 8 1
16959 24 2
16960 12 1
16960 14 1
16960 17 1
16960 18 66
16960 19 71
16960 20 21
16961 19 1
16962 5 1
16963 38 1
16964 17 1
16965 18 28
16965 19 22
16965 20 8
16966 12 3
16966 19 1
16967 24 12
16968 29 1
16969 24 1
16970 7 3
16970 8 10
16971 5 2
16972 4 6
16972 5 24
16972 38 23
16973 29 8
16973 30 1
16974 2 1
16975 2 7
16975 3 28
16975 31 4
16975 34 30
16976 38 1
16977 15 1
16978 2 2
16979 2 1
16979 28 1
16980 18 1
16981 12 26
16981 14 16
16982 3 1
16982 5 1
16983 3 1
16984 29 1
16985 2 1
16985 3 3
16985 5 2
16985 9 1
16985 10 1
16985 11 1
16985 18 1
16985 21 1
16985 22 1
16985 24 1
16985 29 1
16985 34 5
16986 18 1
16987 12 1
16987 29 8
16987 31 2
16988 19 1
16988 22 1
16989 11 1
16989 18 2
16989 24 1
16989 38 4
16990 16 1
16990 17 1
16991 3 1
16991 11 1
16991 16 1
16991 18 1
16991 19 1
16991 22 2
16991 29 1
16991 31 1
16991 34 1
16992 26 1
16993 29 4
16994 24 1
16995 2 7
16995 3 43
16995 7 1
16995 34 37
16996 24 1
16997 24 7
16998 18 1
16999 3 1
16999 4 11
16999 5 44
16999 22 1
16999 34 1
16999 38 60
17000 31 2
17001 23 1
17001 24 1
17001 28 1
17002 3 2
17002 12 1
17002 14 1
17002 15 1
17002 18 1
17002 22 3
17002 30 1
17002 31 1
17002 34 3
17003 18 30
17003 19 29
17003 20 11
17004 29 1
17005 5 1
17005 24 12
17005 34 1
17006 34 1
17007 9 2
17007 10 10
17007 11 10
17007 31 1
17008 22 1
17008 34 1
17008 38 1
17009 24 1
17010 11 1
17011 18 1
17012 21 2
17012 22 4
17013 4 1
17014 19 1
17015 7 1
17016 31 4
17017 19 1
17018 38 1
17019 25 1
17019 26 3
17020 11 1
17021 3 5
17021 5 1
17021 18 1
17021 20 1
17021 21 1
17021 24 1
17021 31 1
17021 34 2
17021 38 2
17022 12 11
17022 14 14
17023 18 44
17023 19 36
17023 20 11
17024 2 1
17025 12 5
17025 14 2
17026 12 1
17027 7 1
17027 12 1
17027 14 1
17027 18 2
17027 30 2
17027 34 1
17028 5 1
17028 12 14
17028 14 11
17029 24 1
17030 26 1
17031 3 1
17032 18 1
17033 3 1
17034 28 1
17035 24 1
17035 34 1
17036 24 1
17036 34 1
17037 11 1
17037 14 1
17037 24 13
17038 34 1
17039 24 1
17040 3 1
17041 21 1
17041 22 1
17042 2 1
17042 12 1
17043 9 15
17043 10 17
17043 11 25
17043 28 1
17044 5 3
17044 24 1
17044 31 1
17044 38 7
17045 29 19
17045 30 2
17046 2 1
17047 14 1
17048 29 5
17049 31 6
17050 29 15
17050 30 1
17051 8 1
17052 18 1
17053 3 1
17053 11 1
17053 12 2
17053 14 1
17054 3 2
17055 3 1
17055 38 1
17056 18 26
17056 19 32
17056 20 8
17056 29 1
17057 4 6
17057 5 10
17057 38 18
17058 24 10
17059 19 1
17059 24 1
17060 3 1
17061 38 1
17062 4 1
17063 2 1
17063 29 26
17063 30 1
17064 38 1
17065 31 9
17065 38 1
17066 12 15
17066 14 6
17066 18 1
17066 19 1
17066 20 1
17066 29 1
17067 24 5
17068 34 1
17069 7 1
17070 19 1
17071 5 5
17071 18 1
17071 38 7
17072 17 1
17073 12 1
17074 4 3
17074 5 53
17074 24 1
17074 38 41
17075 23 1
17075 24 5
17076 21 7
17076 22 9
17077 24 8
17078 21 1
17079 3 1
17079 12 24
17079 13 2
17079 14 26
17080 4 1
17081 22 1
17082 9 6
17082 10 13
17082 11 8
17082 18 1
17083 24 9
17084 1 3
17084 2 12
17084 3 25
17084 8 1
17084 18 1
17084 34 18
17085 24 1
17086 9 1
17086 29 8
17086 30 1
17087 2 5
17087 3 15
17087 34 27
17088 3 1
17089 8 6
17090 4 6
17090 5 14
17090 21 1
17090 38 23
17091 2 1
17091 3 1
17091 4 1
17091 34 1
17092 22 1
17092 34 1
17093 21 1
17094 5 1
17094 20 1
17095 30 1
17096 2 1
17096 24 3
17097 3 1
17098 5 1
17099 38 1
17100 7 1
17101 31 1
17102 31 1
17103 3 2
17103 5 1
17103 34 2
17104 18 23
17104 19 23
17104 20 12
17105 3 1
17105 21 1
17106 31 1
17107 12 1
17107 18 1
17108 4 10
17108 5 45
17108 21 10
17108 38 46
17109 29 4
17109 31 1
17110 18 1
17111 38 1
17112 3 1
17113 28 5
17114 34 1
17115 28 1
17116 18 1
17117 3 1
17118 34 1
17119 3 1
17119 7 1
17120 21 4
17120 22 6
17121 9 5
17121 10 5
17121 11 4
17121 18 1
17122 26 1
17123 29 1
17124 21 10
17124 22 4
17125 24 1
17126 12 6
17126 14 3
17126 21 1
17127 38 1
17128 5 1
17129 34 1
17130 24 6
17131 29 5
17131 30 3
17132 1 1
17132 2 8
17132 3 23
17132 34 18
17133 24 1
17134 5 1
17135 4 1
17136 12 10
17136 14 13
17137 4 1
17137 5 12
17137 38 10
17138 38 1
17139 29 1
17140 3 2
17140 26 9
17140 28 6
17140 34 10
17141 29 4
17142 28 5
17143 5 1
17144 34 1
17145 14 1
17146 12 1
17147 15 15
17147 16 21
17147 17 19
17148 8 1
17148 24 2
17148 26 2
17149 7 1
17149 9 1
17150 4 2
17150 5 7
17150 38 11
17151 19 1
17151 31 4
17152 3 1
17152 4 4
17152 5 18
17152 38 32
17153 29 3
17154 8 1
17154 9 1
17155 2 15
17155 3 27
17155 34 34
17156 15 1
17157 29 6
17158 20 1
17159 38 1
17160 31 1
17161 2 1
17161 34 1
17162 24 1
17163 10 2
17164 24 1
17165 10 1
17165 11 5
17166 14 1
17167 19 1
17167 21 1
17167 34 1
17168 23 2
17168 24 6
17168 28 1
17169 2 1
17169 5 1
17169 31 1
17170 3 1
17170 4 2
17170 5 12
17170 15 9
17170 16 2
17170 17 6
17170 24 7
17170 28 1
17170 29 1
17170 38 10
17171 1 1
17171 2 4
17171 3 11
17171 34 9
17172 19 1
17173 3 1
17173 24 6
17174 3 2
17174 34 3
17175 14 1
17176 21 8
17176 22 12
17177 12 1
17178 9 1
17179 9 26
17179 10 37
17179 11 41
17179 12 1
17180 3 1
17180 8 1
17180 17 1
17181 24 1
17183 34 1
17184 3 1
17185 24 2
17186 29 1
17187 21 22
17187 22 14
17188 19 1
17189 12 3
17189 13 1
17189 14 2
17189 20 1
17189 24 10
17189 28 1
17190 29 9
17191 24 1
17192 31 11
17193 2 1
17193 3 1
17193 5 2
17193 9 1
17193 11 1
17193 14 1
17193 17 1
17193 19 2
17193 20 1
17193 21 1
17193 34 1
17193 38 1
17194 38 1
17195 8 1
17195 31 1
17196 34 1
17197 5 1
17198 2 11
17198 3 15
17198 34 12
17199 2 1
17199 3 1
17199 11 1
17199 14 1
17199 16 1
17199 18 1
17199 19 1
17199 20 1
17199 21 1
17199 22 1
17199 24 1
17199 26 1
17199 29 1
17199 31 2
17199 34 3
17199 38 2
17200 2 1
17200 19 1
17200 21 1
17200 26 1
17201 19 1
17202 14 2
17203 2 1
17204 18 1
17205 3 1
17205 22 1
17206 3 1
17207 29 3
17208 31 2
17209 5 1
17209 10 1
17209 14 1
17209 18 2
17209 19 1
17209 20 1
17209 22 1
17209 34 2
17209 38 1
17210 34 1
17211 19 1
17212 24 1
17213 21 1
17214 9 1
17214 31 1
17215 2 5
17215 3 7
17215 19 1
17215 34 21
17216 18 1
17217 2 2
17217 4 6
17217 5 13
17217 38 15
17218 34 1
17219 2 1
17220 2 1
17220 29 1
17221 8 1
17222 9 10
17222 10 11
17222 11 16
17222 29 3
17222 31 1
17223 18 1
17224 3 1
17225 3 1
17225 5 1
17225 11 2
17225 24 3
17225 26 1
17225 34 2
17226 3 1
17226 4 5
17226 5 18
17226 38 25
17227 4 1
17228 24 1
17229 8 1
17229 28 3
17230 4 2
17230 5 1
17230 38 5
17231 38 1
17232 2 1
17232 4 13
17232 5 39
17232 38 44
17233 3 2
17233 4 1
17233 12 1
17233 19 1
17233 20 2
17233 22 1
17233 26 1
17233 29 1
17233 34 4
17233 38 1
17234 4 2
17234 5 8
17234 38 1
17235 5 3
17235 38 1
17236 21 1
17236 29 4
17236 30 2
17236 38 1
17237 19 1
17238 5 1
17238 14 1
17238 21 1
17239 31 5
17240 24 17
17240 34 1
17241 2 2
17241 3 2
17241 29 3
17241 34 1
17242 15 1
17243 5 1
17244 7 1
17244 19 1
17244 29 1
17245 38 1
17246 2 1
17246 4 1
17246 5 1
17246 12 1
17246 16 1
17246 18 1
17246 19 1
17246 20 1
17246 22 1
17246 31 1
17246 34 3
17246 38 1
17247 21 2
17247 22 2
17248 4 3
17248 5 7
17248 38 14
17249 12 41
17249 14 31
17250 15 1
17251 38 1
17252 38 1
17253 14 1
17254 3 1
17254 14 1
17254 24 1
17255 3 1
17256 26 1
17256 29 2
17257 34 1
17258 5 1
17258 18 1
17259 4 2
17259 5 8
17259 38 18
17260 29 4
17261 5 1
17262 31 3
17263 10 1
17264 3 1
17264 34 3
17265 7 6
17265 8 5
17265 21 13
17265 22 6
17266 2 1
17266 24 4
17267 15 1
17267 28 1
17267 34 1
17267 38 1
17268 34 1
17269 3 1
17269 38 1
17270 2 5
17270 3 7
17270 18 1
17270 34 14
17271 21 2
17272 3 1
17272 22 1
17272 24 1
17272 31 1
17272 34 2
17273 4 1
17273 5 3
17273 15 5
17273 16 3
17273 17 4
17273 24 18
17273 38 1
17274 29 21
17275 28 2
17276 8 1
17276 31 1
17277 14 1
17278 17 1
17279 4 1
17279 18 2
17280 20 1
17281 22 1
17282 12 1
17283 2 1
17283 3 2
17283 5 1
17283 8 1
17283 17 1
17283 18 1
17283 20 1
17283 22 1
17283 31 1
17283 34 2
17284 9 15
17284 10 12
17284 11 12
17285 14 1
17286 19 1
17286 24 26
17287 3 1
17288 5 1
17289 7 10
17289 8 15
17289 19 1
17290 31 17
17291 18 1
17292 2 28
17292 3 34
17292 34 44
17293 3 1
17294 18 1
17295 12 20
17295 14 20
17296 5 1
17297 24 2
17298 25 1
17298 26 2
17299 29 16
17299 30 2
17299 38 1
17300 34 2
17301 9 1
17302 18 10
17302 19 7
17302 20 1
17302 24 1
17303 34 1
17304 34 1
17305 3 1
17306 5 1
17307 34 1
17308 18 5
17308 19 10
17309 28 5
17310 28 2
17311 2 8
17311 3 20
17311 34 37
17312 8 1
17313 10 1
17314 29 1
17315 9 1
17316 24 1
17317 34 1
17318 7 1
17318 31 1
17319 26 9
17319 31 7
17320 5 1
17320 19 1
17321 12 21
17321 14 14
17322 3 1
17322 31 7
17323 22 1
17323 31 9
17324 19 1
17324 31 1
17325 24 10
17326 11 1
17326 18 2
17327 15 1
17328 34 1
17328 38 2
17329 21 35
17329 22 19
17329 34 1
17330 29 8
17330 30 1
17330 31 1
17331 5 1
17332 5 1
17333 7 1
17333 21 4
17333 22 3
17334 4 1
17334 23 1
17334 24 2
17335 7 1
17335 34 3
17336 2 2
17336 3 1
17336 12 1
17336 18 1
17336 24 1
17336 31 1
17336 34 2
17337 3 1
17337 31 1
17338 4 1
17338 5 14
17338 38 19
17339 2 1
17340 29 2
17341 29 2
17341 30 2
17342 7 2
17342 8 5
17342 38 1
17343 20 1
17344 22 1
17345 29 1
17346 28 1
17346 34 1
17347 29 17
17347 30 1
17348 31 1
17349 21 1
17349 24 1
17349 34 3
17349 38 1
17350 38 1
17351 34 1
17352 38 1
17353 18 1
17354 12 1
17355 34 2
17356 2 19
17356 3 28
17356 34 29
17357 2 1
17357 3 1
17357 5 1
17357 7 1
17357 8 1
17357 14 1
17357 19 1
17357 20 1
17357 24 1
17357 29 2
17357 34 1
17358 38 1
17359 24 7
17360 22 1
17360 24 1
17361 18 1
17361 19 2
17361 20 1
17361 29 1
17362 4 1
17363 23 1
17363 24 23
17363 38 1
17364 24 1
17365 7 2
17365 8 5
17366 34 1
17367 29 5
17368 29 12
17368 30 1
17369 5 1
17369 19 1
17370 10 1
17370 21 1
17370 28 6
17371 12 8
17371 13 2
17371 14 10
17371 24 2
17371 29 1
17372 5 1
17372 29 1
17374 28 3
17375 15 1
17375 29 17
17375 30 1
17376 4 1
17376 5 1
17376 38 2
17377 19 1
17378 15 1
17378 31 1
17379 5 1
17380 19 1
17380 24 7
17381 26 1
17382 3 9
17382 34 15
17383 22 4
17384 2 1
17385 2 1
17385 34 2
17386 2 8
17386 3 5
17386 34 9
17387 34 1
17388 3 1
17389 5 1
17390 31 11
17391 24 2
17392 24 7
17393 24 1
17394 2 1
17394 29 1
17395 5 1
17395 16 1
17395 24 4
17395 38 1
17396 24 1
17397 2 14
17397 3 21
17397 34 23
17397 38 1
17398 24 1
17399 3 1
17399 10 1
17399 34 2
17400 24 1
17400 28 1
17401 24 1
17402 8 2
17402 10 1
17402 12 1
17402 19 1
17402 20 1
17402 21 1
17402 24 1
17402 29 1
17402 34 2
17403 34 1
17404 8 1
17405 5 1
17406 5 1
17406 24 1
17406 38 1
17407 22 1
17407 24 1
17408 3 1
17408 34 1
17409 18 1
17409 24 15
17409 34 1
17410 19 1
17411 14 1
17412 19 1
17413 29 3
17414 5 1
17416 19 1
17417 8 3
17417 24 1
17418 15 4
17418 16 2
17418 17 4
17419 18 3
17419 19 5
17419 20 1
17420 11 3
17421 22 1
17422 15 1
17422 19 1
17422 34 1
17423 3 2
17424 24 35
17424 34 1
17425 26 1
17425 34 1
17426 3 1
17426 10 1
17427 1 1
17427 10 1
17427 14 1
17427 19 1
17427 24 1
17428 29 1
17429 7 2
17429 8 5
17429 24 1
17430 31 14
17431 38 1
17432 38 1
17433 18 1
17434 19 1
17435 2 1
17435 3 2
17435 34 8
17436 29 10
17437 24 1
17438 34 1
17439 2 2
17439 3 12
17439 34 9
17440 15 3
17440 17 2
17441 31 1
17442 31 2
17443 4 1
17444 7 6
17444 8 19
17444 34 1
17445 28 1
17446 29 1
17447 2 1
17447 38 1
17448 20 1
17449 12 29
17449 14 12
17450 12 1
17451 4 1
17451 5 3
17451 34 1
17451 38 7
17452 5 1
17453 19 1
17453 21 1
17453 38 1
17454 24 22
17455 38 1
17456 4 9
17456 5 25
17456 38 36
17457 24 1
17457 28 1
17458 38 1
17459 1 1
17459 2 7
17459 3 20
17459 24 8
17459 34 17
17460 28 1
17460 29 1
17461 18 14
17461 19 15
17461 20 1
17461 38 1
17462 9 1
17462 10 1
17462 11 1
17463 24 1
17464 2 7
17464 3 14
17464 34 16
17465 9 1
17465 12 1
17465 15 1
17465 24 1
17465 31 1
17465 34 2
17465 38 1
17466 2 1
17466 24 7
17467 29 1
17468 38 1
17469 5 1
17469 18 1
17470 31 1
17471 8 1
17471 12 3
17471 14 3
17472 24 5
17473 8 1
17474 16 1
17475 22 1
17476 38 1
17477 16 1
17478 2 3
17478 3 9
17478 5 1
17478 21 15
17478 22 8
17478 29 1
17478 31 1
17478 34 10
17479 38 1
17480 19 1
17480 21 1
17481 22 1
17482 4 4
17482 5 15
17482 38 29
17483 19 1
17483 31 3
17483 38 1
17484 5 1
17484 12 1
17484 20 1
17485 3 1
17485 28 1
17486 18 1
17487 29 5
17488 21 1
17489 21 1
17490 21 4
17490 22 7
17491 5 1
17492 34 1
17493 9 1
17493 20 1
17493 29 1
17494 29 1
17495 19 6
17495 20 4
17496 12 2
17496 14 4
17497 4 2
17497 5 24
17497 38 32
17498 21 6
17498 22 11
17499 14 1
17500 20 1
17501 34 1
17502 4 2
17502 5 35
17502 38 35
17503 28 1
17503 29 20
17503 30 1
17504 23 1
17505 18 1
17506 2 10
17506 3 23
17506 21 8
17506 22 8
17506 34 31
17507 28 2
17508 12 16
17508 14 12
17509 21 1
17510 5 1
17510 18 1
17510 38 3
17511 2 1
17511 5 1
17511 14 1
17511 34 1
17512 24 1
17513 24 3
17513 28 2
17514 4 1
17515 3 1
17516 18 3
17517 29 1
17518 3 1
17519 4 9
17519 5 25
17519 38 35
17520 22 1
17521 24 14
17522 2 11
17522 3 16
17522 34 20
17523 18 1
17524 3 1
17525 4 3
17525 5 11
17525 38 22
17526 4 2
17526 5 14
17526 38 6
17527 20 1
17528 3 4
17528 5 1
17528 10 1
17528 11 1
17528 14 1
17528 21 1
17528 28 1
17528 29 1
17528 31 1
17528 34 1
17528 38 1
17529 4 1
17529 11 1
17529 18 1
17529 20 1
17529 28 1
17529 31 2
17529 34 2
17529 38 1
17530 22 1
17531 29 2
17531 30 2
17532 3 1
17533 12 16
17533 14 7
17534 21 1
17535 2 1
17535 22 1
17536 20 1
17536 29 2
17537 26 1
17537 31 1
17538 31 2
17539 5 1
17539 19 1
17540 4 1
17541 18 1
17542 5 1
17543 4 4
17543 5 19
17543 38 18
17544 28 1
17545 24 11
17546 7 7
17546 8 21
17547 38 1
17548 24 1
17549 18 14
17549 19 28
17549 20 4
17550 38 1
17551 26 1
17552 21 1
17552 22 2
17553 24 7
17554 34 2
17555 15 1
17555 16 1
17555 17 2
17555 38 1
17556 5 5
17556 38 5
17557 3 1
17557 29 1
17558 34 1
17559 28 1
17560 12 1
17561 4 12
17561 5 32
17561 24 1
17561 38 43
17562 2 1
17562 3 1
17562 10 1
17563 2 1
17564 29 1
17565 28 8
17565 38 1
17566 3 2
17566 9 1
17566 16 1
17566 18 1
17566 19 1
17566 24 2
17566 28 1
17566 29 1
17566 31 1
17566 34 3
17566 38 2
17567 2 1
17568 10 1
17569 14 1
17570 1 1
17570 2 15
17570 3 17
17570 34 25
17571 4 2
17571 5 4
17571 29 9
17571 34 1
17571 38 3
17572 10 1
17573 2 1
17573 10 1
17573 21 1
17574 4 5
17574 5 16
17574 38 26
17575 7 11
17575 8 19
17575 34 1
17575 38 1
17576 24 1
17576 38 1
17577 3 1
17577 18 2
17577 20 1
17578 29 6
17579 34 1
17580 21 5
17580 22 6
17581 38 1
17582 5 10
17582 38 15
17583 3 1
17583 30 1
17584 29 2
17585 4 1
17585 5 1
17585 9 2
17585 10 6
17585 11 1
17586 2 11
17586 3 17
17586 4 1
17586 34 19
17587 3 1
17587 24 6
17587 34 1
17588 18 17
17588 19 14
17588 20 12
17589 21 1
17589 24 1
17589 31 1
17590 5 1
17591 38 1
17592 4 1
17592 31 23
17592 38 1
17593 29 13
17593 30 1
17593 38 1
17594 38 1
17595 21 11
17595 22 21
17595 38 1
17596 18 29
17596 19 28
17596 20 5
17597 19 1
17598 12 6
17598 24 1
17599 12 3
17599 14 3
17600 21 6
17600 22 5
17601 24 1
17602 3 1
17602 4 2
17602 5 31
17602 38 23
17603 4 1
17603 24 1
17603 38 1
17604 2 4
17604 3 11
17604 21 1
17604 31 1
17604 34 10
17605 38 1
17606 7 1
17606 18 1
17606 20 2
17606 34 1
17607 4 5
17607 5 29
17607 38 41
17608 18 1
17608 24 10
17609 3 1
17609 5 2
17609 11 1
17609 21 1
17609 34 1
17609 38 1
17610 9 5
17610 10 13
17610 11 13
17611 24 13
17612 5 1
17613 20 1
17613 34 3
17613 38 1
17614 5 1
17615 21 1
17615 26 1
17615 30 1
17616 5 1
17616 21 1
17616 24 1
17616 31 1
17617 34 1
17618 21 1
17619 17 1
17620 3 1
17620 8 1
17620 20 1
17621 4 1
17621 5 18
17621 38 17
17622 24 16
17623 18 1
17624 5 1
17624 12 3
17624 14 2
17624 21 4
17624 22 4
17625 23 1
17625 24 2
17625 34 1
17626 34 1
17627 3 1
17627 22 1
17628 12 5
17628 14 5
17628 21 15
17628 22 8
17629 3 1
17629 31 1
17630 34 1
17631 12 27
17631 14 27
17631 18 16
17631 19 14
17631 20 2
17632 29 4
17633 2 26
17633 3 39
17633 34 50
17634 5 1
17635 29 2
17636 24 1
17636 27 1
17636 28 2
17637 34 1
17638 18 23
17638 19 24
17638 20 5
17639 7 7
17639 8 16
17640 1 1
17640 2 20
17640 3 40
17640 29 5
17640 30 1
17640 34 45
17641 9 28
17641 10 44
17641 11 18
17642 20 1
17643 14 1
17643 15 1
17643 17 1
17644 29 1
17645 10 1
17646 34 1
17647 22 1
17648 19 1
17649 3 1
17650 21 1
17651 4 1
17652 21 1
17653 11 1
17654 10 1
17654 12 4
17654 14 1
17654 18 1
17654 26 1
17654 34 1
17655 2 8
17655 3 27
17655 34 37
17656 18 17
17656 19 21
17656 20 3
17656 34 1
17657 2 13
17657 3 21
17657 34 21
17658 2 1
17659 2 5
17659 3 22
17659 34 27
17660 31 7
17661 5 1
17662 30 1
17662 31 5
17663 31 12
17664 38 1
17665 31 1
17666 19 1
17667 3 1
17668 5 1
17669 2 2
17669 3 4
17669 12 1
17669 19 1
17669 34 5
17670 24 1
17670 34 1
17671 28 1
17672 3 1
17672 4 1
17672 5 2
17672 8 1
17672 11 1
17672 14 1
17672 19 1
17672 20 1
17672 24 2
17672 34 1
17672 38 1
17673 3 1
17674 12 6
17674 14 3
17674 34 1
17675 7 1
17675 8 1
17676 34 1
17677 10 1
17677 22 1
17678 29 4
17679 12 1
17680 12 1
17680 18 13
17680 19 10
17680 34 1
17681 22 1
17682 18 1
17683 31 10
17684 22 1
17685 14 1
17686 31 3
17686 34 1
17687 5 1
17687 18 1
17687 19 18
17687 34 1
17688 19 1
17688 38 1
17689 8 1
17690 4 5
17690 5 18
17690 12 3
17690 14 2
17690 38 24
17691 12 1
17691 34 1
17692 7 4
17692 8 3
17693 12 2
17693 14 2
17694 2 18
17694 3 34
17694 5 1
17694 34 53
17695 31 5
17696 18 16
17696 19 19
17696 20 8
17697 38 1
17698 17 1
17698 21 13
17698 22 13
17699 7 6
17699 8 18
17700 11 1
17700 34 1
17701 1 1
17701 2 14
17701 3 17
17701 34 39
17702 29 1
17703 29 12
17704 2 1
17704 15 2
17705 29 1
17706 17 1
17707 5 1
17708 4 8
17708 5 13
17708 38 24
17709 16 1
17710 3 1
17711 1 2
17711 2 11
17711 3 29
17711 29 1
17711 34 29
17712 34 1
17713 22 1
17714 7 4
17714 8 3
17715 24 1
17716 22 1
17717 34 1
17718 24 14
17719 19 2
17720 18 27
17720 19 32
17720 20 9
17721 26 1
17722 24 17
17723 5 1
17723 38 3
17724 2 1
17724 15 1
17724 29 16
17725 21 6
17725 22 11
17726 29 1
17727 9 9
17727 10 21
17727 11 5
17727 38 1
17728 9 1
17729 9 5
17729 10 12
17729 11 15
17730 3 1
17730 14 1
17730 18 1
17730 34 1
17731 24 1
17732 29 1
17733 5 1
17733 21 1
17733 28 4
17734 22 1
17734 31 1
17735 9 6
17735 10 17
17735 11 15
17735 38 1
17736 5 1
17736 34 1
17736 38 1
17737 3 1
17737 4 2
17737 5 38
17737 24 1
17737 38 34
17738 17 1
17739 5 1
17740 2 1
17741 22 1
17742 2 8
17742 3 13
17742 12 1
17742 34 26
17743 3 1
17744 19 2
17745 18 1
17746 15 4
17746 16 2
17746 17 10
17747 3 1
17747 24 1
17748 11 1
17749 9 1
17749 18 7
17749 19 1
17749 20 1
17749 24 1
17750 19 1
17751 21 1
17752 18 31
17752 19 24
17752 20 2
17752 34 1
17753 12 2
17754 29 1
17755 24 1
17756 8 2
17757 3 1
17757 18 14
17757 19 36
17757 20 9
17758 24 6
17759 19 1
17760 15 1
17760 24 1
17761 5 1
17762 2 4
17762 3 3
17762 4 1
17762 34 9
17763 20 1
17764 2 1
17764 31 1
17765 2 1
17765 29 6
17766 24 1
17767 38 1
17768 24 1
17769 18 34
17769 19 35
17769 20 8
17770 2 1
17770 29 5
17771 2 1
17771 18 1
17771 19 2
17771 28 1
17771 31 1
17771 38 2
17772 2 1
17772 12 1
17772 14 1
17772 18 1
17772 29 1
17773 29 1
17774 3 1
17775 24 24
17776 12 1
17777 22 1
17777 24 9
17778 21 9
17778 22 4
17779 3 1
17780 31 1
17781 26 1
17782 28 3
17783 3 1
17784 18 12
17784 19 13
17784 20 3
17785 5 1
17786 3 1
17786 5 1
17786 20 1
17786 21 1
17786 31 1
17786 38 1
17787 24 1
17788 24 3
17789 8 1
17789 9 1
17790 4 1
17790 5 19
17790 38 18
17791 3 1
17792 2 20
17792 3 32
17792 34 41
17793 2 12
17793 3 38
17793 34 34
17794 24 1
17795 2 2
17795 18 1
17795 19 1
17795 24 1
17795 31 1
17795 34 1
17795 38 2
17796 21 3
17796 22 1
17797 2 10
17797 3 9
17797 34 21
17797 38 1
17798 15 4
17798 16 3
17798 17 3
17799 3 1
17800 4 1
17801 24 5
17801 29 1
17801 31 10
17802 2 1
17803 3 1
17804 7 7
17804 8 10
17805 23 1
17805 24 12
17806 2 6
17806 3 12
17806 34 10
17807 2 1
17808 5 1
17808 29 22
17808 30 2
17808 34 1
17809 11 1
17809 31 9
17810 34 1
17811 8 1
17812 24 36
17813 18 1
17813 21 1
17813 28 3
17814 2 1
17814 3 1
17814 29 1
17814 31 1
17815 38 1
17816 3 1
17816 22 1
17817 21 3
17817 22 5
17818 24 1
17819 19 1
17820 2 1
17820 3 2
17820 34 10
17821 19 1
17821 24 8
17822 4 1
17823 29 1
17824 3 1
17824 24 1
17824 28 7
17824 29 1
17825 2 1
17825 8 2
17825 20 1
17825 29 1
17826 38 1
17827 8 1
17827 24 2
17827 28 3
17828 2 1
17828 3 1
17828 17 1
17828 19 2
17828 26 1
17828 28 1
17828 31 1
17829 3 2
17829 11 1
17829 24 3
17829 30 1
17829 34 2
17829 38 1
17830 18 10
17830 19 25
17830 20 4
17831 4 12
17831 5 42
17831 38 58
17832 21 3
17832 22 3
17832 26 1
17833 19 1
17834 2 1
17834 9 1
17835 8 1
17835 24 2
17836 24 1
17837 3 1
17838 28 2
17839 24 1
17840 31 1
17841 19 1
17842 12 1
17843 19 1
17843 31 14
17844 28 5
17844 34 1
17845 2 6
17845 3 9
17845 4 1
17845 34 6
17846 18 1
17847 14 1
17848 12 17
17848 13 1
17848 14 15
17849 34 1
17850 34 1
17851 16 1
17852 15 38
17852 16 18
17852 17 25
17853 9 1
17854 3 1
17855 3 3
17855 5 1
17855 8 1
17855 15 1
17855 18 3
17855 20 1
17855 21 1
17855 34 1
17856 28 1
17857 16 1
17858 34 1
17859 2 1
17859 3 7
17859 34 4
17860 5 1
17861 24 1
17862 3 1
17863 5 1
17864 7 1
17864 8 5
17865 21 1
17866 34 1
17867 5 1
17867 16 1
17867 24 1
17868 29 20
17868 30 2
17869 18 1
17869 19 1
17870 19 1
17871 31 15
17872 18 32
17872 19 31
17872 20 12
17873 21 1
17874 2 2
17874 3 1
17874 5 2
17874 10 1
17874 12 3
17874 16 1
17874 18 1
17874 19 1
17874 21 1
17874 34 2
17875 18 1
17875 21 2
17875 34 1
17876 10 1
17877 15 24
17877 16 4
17877 17 10
17878 14 1
17879 3 1
17879 4 1
17880 15 5
17880 16 4
17880 17 2
17881 29 1
17882 15 1
17883 13 1
17884 3 1
17884 23 2
17884 24 15
17884 38 1
17885 24 6
17885 38 1
17886 31 7
17887 4 1
17887 5 2
17887 38 1
17888 22 3
17888 34 2
17889 12 1
17890 3 1
17890 10 1
17891 29 1
17892 31 20
17893 2 21
17893 3 41
17893 21 8
17893 22 6
17893 34 54
17893 38 1
17894 38 1
17895 8 1
17896 38 1
17897 16 1
17897 17 2
17898 5 1
17899 21 10
17899 22 7
17900 29 9
17900 30 1
17901 14 1
17902 21 23
17902 22 18
17903 14 1
17904 15 4
17904 16 1
17905 2 1
17905 5 1
17905 11 1
17906 18 1
17907 34 1
17908 18 18
17908 19 19
17908 20 2
17909 2 1
17909 18 18
17909 19 17
17909 20 5
17910 4 3
17910 5 14
17910 18 3
17910 19 6
17910 38 13
17911 26 1
17912 24 1
17912 28 7
17913 20 1
17914 5 1
17914 24 19
17915 7 1
17915 8 2
17916 19 1
17917 19 1
17918 18 1
17918 24 5
17918 38 1
17919 2 9
17919 3 33
17919 5 1
17919 34 43
17920 29 1
17921 24 8
17921 38 1
17922 5 1
17922 12 1
17923 31 13
17924 3 5
17924 9 1
17924 18 1
17924 20 1
17924 24 1
17924 38 3
17925 8 1
17926 17 1
17927 11 1
17928 31 1
17929 2 1
17929 3 1
17929 34 1
17930 38 1
17931 14 1
17932 5 1
17932 10 4
17932 11 2
17932 12 15
17932 13 1
17932 14 4
17932 19 1
17932 38 1
17933 2 13
17933 3 22
17933 23 1
17933 24 18
17933 34 37
17934 12 1
17935 5 1
17936 19 1
17936 29 1
17936 34 2
17936 38 2
17937 2 1
17938 26 1
17939 18 6
17939 19 5
17939 21 1
17940 3 1
17940 14 1
17941 34 1
17942 24 6
17943 3 1
17944 7 10
17944 8 14
17944 21 1
17945 19 1
17946 3 1
17946 19 2
17947 2 5
17947 3 17
17947 34 27
17948 2 1
17948 10 1
17949 7 1
17950 5 1
17951 24 1
17952 24 4
17953 28 1
17954 18 1
17955 31 8
17956 5 1
17957 18 12
17957 19 10
17957 20 3
17958 12 10
17958 14 6
17958 22 1
17959 12 1
17960 19 1
17961 24 1
17961 29 1
17962 5 1
17962 18 1
17962 19 1
17962 34 1
17963 21 9
17963 22 7
17964 28 2
17965 21 1
17966 4 1
17967 2 2
17967 3 9
17967 34 12
17968 2 2
17968 3 5
17968 8 1
17968 21 1
17968 34 7
17969 38 1
17970 31 1
17970 34 1
17971 34 1
17972 2 12
17972 3 15
17972 34 21
17973 31 7
17974 5 1
17974 38 1
17975 22 1
17975 38 1
17976 29 1
17977 7 18
17977 8 17
17978 5 5
17978 38 4
17979 7 1
17980 3 1
17980 29 11
17980 38 1
17981 34 1
17982 38 1
17983 11 1
17984 4 6
17984 5 29
17984 38 22
17985 4 1
17986 11 1
17987 15 1
17988 25 2
17988 26 4
17988 31 1
17989 21 8
17989 22 11
17990 24 1
17990 28 1
17991 19 1
17992 12 1
17993 2 5
17993 3 18
17993 7 1
17993 34 21
17994 29 1
17995 4 7
17995 5 23
17995 38 42
17996 19 2
17997 21 1
17998 22 1
17998 34 2
17999 8 1
17999 18 3
17999 20 3
17999 24 1
18000 20 1
18001 18 3
18001 19 2
18001 29 1
18001 38 1
18002 1 1
18002 2 12
18002 3 36
18002 34 37
18003 1 2
18003 2 22
18003 3 34
18003 19 1
18003 24 1
18003 34 52
18003 38 1
18004 7 1
18004 10 2
18004 11 2
18005 29 2
18006 24 1
18007 2 1
18007 3 1
18007 4 1
18007 24 1
18008 5 3
18008 38 3
18009 19 1
18010 34 1
18011 29 3
18012 38 1
18013 38 1
18014 29 13
18015 3 1
18015 26 1
18016 2 1
18017 2 1
18017 9 1
18017 31 1
18017 38 1
18018 34 1
18019 28 1
18019 31 1
18020 21 1
18021 10 1
18021 34 1
18022 21 1
18023 2 1
18023 3 2
18023 34 1
18024 7 1
18024 8 1
18025 28 1
18026 38 1
18027 19 1
18027 21 3
18027 22 2
18027 38 2
18028 24 1
18029 31 5
18030 21 1
18031 18 1
18031 19 1
18032 20 1
18033 2 1
18033 9 1
18033 10 4
18033 11 5
18034 28 2
18035 28 3
18036 18 1
18037 5 1
18037 15 1
18038 19 1
18039 29 2
18040 29 1
18041 22 1
18042 8 1
18042 21 1
18042 24 6
18043 5 1
18044 2 1
18045 2 13
18045 3 15
18045 34 21
18046 3 2
18046 4 3
18046 5 4
18046 38 2
18047 17 2
18048 4 4
18048 5 21
18048 38 20
18049 38 1
18050 3 1
18051 18 1
18052 5 1
18052 12 1
18052 22 1
18052 28 1
18052 38 1
18053 5 1
18053 31 1
18053 38 1
18054 3 2
18055 34 1
18056 9 6
18056 10 5
18056 11 5
18057 19 1
18058 29 2
18059 4 2
18059 5 24
18059 38 27
18060 8 1
18060 10 1
18060 38 1
18061 3 1
18062 3 1
18063 29 1
18064 38 1
18065 3 1
18065 16 1
18065 34 1
18066 3 1
18066 18 1
18066 31 1
18066 38 1
18067 38 1
18068 19 1
18069 19 1
18070 5 1
18070 21 1
18070 22 1
18070 34 1
18071 18 1
18072 17 1
18072 29 18
18073 3 1
18074 4 8
18074 5 65
18074 19 1
18074 38 53
18075 31 1
18076 3 1
18077 2 8
18077 3 11
18077 30 1
18077 34 16
18078 19 1
18078 29 13
18079 29 3
18080 2 5
18080 3 9
18080 34 20
18081 10 1
18082 5 3
18082 31 1
18082 38 1
18083 34 1
18084 15 1
18085 2 2
18085 3 4
18085 34 4
18086 21 1
18086 38 1
18087 7 1
18088 19 1
18089 34 1
18090 3 1
18091 4 6
18091 5 38
18091 38 31
18092 12 3
18092 14 4
18093 8 1
18093 18 7
18093 19 11
18093 20 4
18094 38 1
18095 34 1
18096 12 4
18096 14 1
18097 24 1
18098 19 1
18098 28 4
18099 2 1
18100 1 2
18100 2 14
18100 3 36
18100 34 40
18101 16 1
18102 24 1
18103 2 1
18104 4 5
18104 5 12
18104 34 1
18104 38 9
18105 26 1
18106 4 1
18106 5 1
18106 38 1
18107 12 1
18107 19 30
18108 29 3
18108 38 1
18109 12 1
18110 18 5
18110 19 5
18110 20 1
18110 21 1
18111 5 1
18112 3 3
18112 15 1
18112 21 1
18112 24 1
18112 34 2
18112 38 1
18113 24 12
18114 7 1
18115 34 1
18116 18 1
18117 2 4
18117 3 12
18117 5 1
18117 34 17
18118 9 7
18118 10 6
18118 11 3
18118 18 1
18118 20 1
18119 2 1
18119 3 6
18119 34 10
18120 19 1
18121 22 1
18122 4 3
18122 5 11
18122 38 12
18123 25 1
18123 26 1
18124 5 3
18124 18 2
18124 38 1
18125 7 2
18125 8 6
18125 19 1
18126 31 1
18127 2 14
18127 3 11
18127 11 1
18127 34 21
18128 24 12
18129 22 1
18130 34 1
18131 24 1
18132 14 1
18133 29 1
18134 21 1
18135 24 8
18136 15 11
18136 16 3
18136 17 6
18137 2 1
18138 18 18
18138 19 19
18138 20 7
18138 34 1
18139 26 1
18140 4 6
18140 5 18
18140 38 24
18141 18 2
18141 19 1
18141 20 1
18142 4 1
18142 5 1
18142 12 3
18142 14 4
18142 38 2
18143 2 7
18143 3 25
18143 34 21
18144 38 1
18145 3 1
18146 2 1
18147 21 26
18147 22 18
18148 29 1
18149 10 1
18150 10 1
18150 11 1
18151 9 1
18151 10 2
18151 11 2
18152 10 1
18152 14 1
18152 18 1
18153 7 1
18154 31 4
18155 10 1
18155 29 1
18155 34 1
18156 38 1
18157 4 4
18157 5 8
18157 38 12
18158 38 1
18159 2 1
18159 5 1
18159 22 1
18159 29 1
18160 29 7
18160 30 1
18161 3 1
18162 24 1
18163 3 2
18163 14 1
18163 29 1
18163 38 1
18164 10 1
18165 2 3
18165 3 4
18165 34 8
18166 5 1
18167 21 1
18168 5 1
18168 9 7
18168 10 9
18168 11 4
18169 3 1
18169 21 7
18169 22 2
18170 4 1
18171 15 1
18171 17 1
18171 21 3
18171 22 3
18172 24 1
18173 34 1
18174 3 1
18174 21 1
18175 19 1
18176 8 1
18176 19 1
18177 29 9
18177 30 2
18178 31 4
18179 12 1
18179 38 1
18180 10 2
18180 11 1
18180 18 1
18180 19 6
18181 38 1
18182 29 2
18183 18 1
18184 5 1
18184 38 2
18185 9 1
18186 38 1
18187 3 2
18187 5 1
18187 15 1
18187 29 1
18187 31 1
18187 34 2
18187 38 1
18188 3 1
18188 24 2
18189 2 1
18190 3 1
18191 5 1
18191 12 1
18192 12 1
18192 21 11
18192 22 8
18192 24 1
18193 5 1
18194 22 1
18195 5 1
18196 3 1
18196 5 1
18196 9 1
18196 18 1
18196 20 1
18196 24 1
18196 31 1
18196 34 2
18196 38 1
18197 8 1
18198 19 1
18198 29 1
18199 24 1
18200 34 1
18201 28 3
18202 29 1
18203 18 1
18204 12 13
18204 14 10
18205 19 1
18206 19 1
18206 24 14
18207 21 9
18207 22 3
18208 2 1
18209 34 1
18210 2 1
18211 2 1
18211 7 1
18211 8 4
18212 18 1
18212 19 4
18213 38 1
18214 3 1
18214 8 1
18214 34 1
18215 31 1
18216 18 11
18216 19 6
18216 20 1
18216 24 1
18217 4 4
18217 5 17
18217 38 17
18218 15 8
18218 16 2
18218 17 4
18219 38 1
18220 24 1
18221 19 1
18221 29 1
18222 29 1
18223 38 2
18224 11 1
18224 18 1
18225 28 1
18225 34 1
18225 38 1
18226 38 1
18227 3 1
18227 4 1
18227 8 1
18227 19 1
18227 38 1
18228 8 1
18228 18 1
18228 34 2
18229 2 1
18230 8 1
18231 24 1
18232 3 1
18233 31 3
18234 12 1
18234 16 1
18234 26 1
18235 19 2
18235 20 1
18236 3 1
18236 5 1
18236 22 1
18237 18 1
18237 28 6
18238 18 1
18238 21 5
18238 22 2
18239 10 1
18240 21 12
18240 22 7
18241 9 9
18241 10 23
18241 11 9
18241 17 1
18241 24 1
18242 2 1
18242 3 2
18242 22 2
18242 23 1
18242 24 4
18242 34 3
18243 9 1
18243 10 2
18243 11 2
18244 22 1
18245 18 28
18245 19 22
18245 20 10
18246 25 1
18246 26 1
18247 15 1
18247 31 25
18248 19 1
18249 31 5
18250 38 1
18251 31 7
18252 28 1
18252 34 1
18253 7 1
18253 8 4
18253 20 1
18254 2 1
18254 38 1
18255 38 1
18256 29 2
18257 29 5
18258 38 1
18259 34 1
18260 10 1
18260 19 1
18260 21 1
18260 23 1
18260 24 13
18261 5 1
18262 9 1
18262 24 1
18262 29 1
18263 12 1
18263 21 1
18263 29 1
18264 24 15
18264 34 1
18265 7 3
18265 8 4
18266 9 11
18266 10 4
18266 11 7
18266 34 1
18267 12 1
18268 18 1
18269 8 1
18269 18 1
18270 2 3
18270 3 12
18270 34 7
18271 1 1
18271 2 40
18271 3 40
18271 19 1
18271 34 70
18272 18 5
18272 19 3
18272 20 2
18273 4 2
18273 5 12
18273 38 14
18274 28 1
18274 34 1
18275 1 1
18276 5 1
18277 19 1
18278 5 1
18279 22 1
18280 21 5
18280 29 1
18281 3 2
18281 34 1
18282 29 1
18283 12 6
18283 14 4
18284 28 6
18284 38 1
18285 5 2
18285 24 1
18285 26 1
18285 34 1
18286 13 1
18287 18 1
18288 4 1
18289 14 1
18290 9 12
18290 10 9
18290 11 9
18290 18 6
18290 19 10
18290 20 1
18291 2 8
18291 3 9
18291 34 14
18292 2 3
18292 3 6
18292 34 3
18293 34 1
18294 12 1
18294 34 1
18295 34 1
18296 12 1
18297 2 1
18298 31 1
18299 2 2
18299 3 3
18299 5 1
18299 16 1
18299 18 1
18299 19 1
18299 21 2
18299 24 1
18299 28 1
18299 31 2
18299 34 2
18299 38 2
18300 8 1
18300 21 1
18300 24 9
18301 12 1
18302 22 1
18302 34 1
18303 3 1
18303 18 22
18303 19 28
18303 20 11
18304 1 1
18304 3 5
18304 24 1
18304 34 3
18305 7 1
18305 24 10
18306 4 3
18306 5 9
18306 38 13
18307 10 1
18307 29 4
18308 21 27
18308 22 16
18308 31 9
18308 34 1
18308 38 2
18309 26 1
18310 19 1
18311 10 2
18311 26 8
18312 18 1
18312 31 9
18313 2 1
18313 3 13
18313 34 9
18313 38 1
18314 7 1
18314 8 1
18314 34 1
18315 3 1
18315 5 1
18315 28 6
18316 2 1
18316 5 1
18316 8 1
18316 11 1
18316 12 2
18316 29 1
18316 34 1
18316 38 1
18317 4 11
18317 5 33
18317 29 1
18317 38 31
18318 14 2
18318 21 1
18319 5 1
18319 24 1
18319 29 1
18320 4 5
18320 5 10
18320 38 7
18321 12 10
18321 13 2
18321 14 5
18322 2 1
18322 3 2
18322 29 1
18322 34 8
18323 3 1
18323 5 1
18323 12 1
18323 18 1
18323 26 1
18323 31 1
18323 38 1
18324 31 12
18324 34 1
18325 18 1
18325 21 15
18325 22 4
18326 29 1
18327 17 1
18328 28 3
18329 26 4
18330 19 2
18331 24 19
18332 34 1
18333 24 1
18334 34 1
18335 3 1
18336 4 2
18336 5 5
18336 12 1
18336 38 4
18337 12 1
18337 19 1
18338 21 1
18339 2 1
18340 21 1
18341 4 3
18341 5 8
18341 18 1
18341 38 15
18342 2 5
18342 3 5
18342 34 11
18343 3 1
18343 4 1
18343 18 1
18344 29 8
18345 20 1
18345 34 1
18346 38 1
18347 12 1
18348 2 13
18348 3 29
18348 8 1
18348 21 1
18348 29 5
18348 34 34
18348 38 1
18349 4 7
18349 5 30
18349 38 33
18350 10 1
18350 12 1
18351 29 1
18352 29 12
18352 31 9
18353 3 1
18353 31 1
18353 34 1
18354 21 1
18355 38 1
18356 18 1
18357 24 23
18358 2 1
18358 25 1
18359 12 2
18360 4 2
18360 5 10
18360 38 12
18361 29 35
18362 15 5
18362 16 4
18362 17 5
18362 18 1
18362 22 1
18363 7 1
18363 8 3
18364 29 3
18365 31 1
18366 3 1
18366 21 1
18367 5 1
18368 34 1
18369 2 2
18369 8 1
18369 26 1
18370 29 19
18370 30 2
18371 9 1
18371 10 1
18372 12 3
18372 14 3
18373 29 1
18374 1 1
18374 2 3
18374 3 2
18374 19 1
18374 29 2
18374 34 9
18375 5 1
18375 8 1
18375 26 1
18375 31 13
18375 38 1
18376 9 3
18376 10 10
18376 11 14
18376 12 1
18377 24 1
18378 34 1
18379 3 1
18379 31 6
18380 3 1
18380 5 1
18380 16 1
18380 19 1
18380 21 2
18380 24 1
18380 28 1
18380 29 3
18380 34 1
18381 3 3
18382 9 1
18383 21 1
18384 5 1
18384 14 1
18384 24 1
18385 2 1
18386 34 1
18387 3 1
18387 19 1
18388 4 1
18388 23 1
18389 18 1
18389 31 1
18389 34 1
18390 5 1
18390 24 7
18390 34 1
18391 18 1
18391 29 5
18392 2 1
18392 24 2
18392 34 3
18393 34 1
18394 3 1
18394 12 42
18394 13 3
18394 14 13
18395 4 3
18395 5 11
18395 11 1
18395 21 7
18395 22 5
18395 38 14
18396 29 1
18397 5 1
18398 34 1
18398 38 1
18399 23 1
18399 24 6
18400 29 1
18401 24 4
18402 34 1
18403 5 1
18404 9 3
18404 10 10
18404 11 4
18405 22 1
18405 28 4
18406 15 1
18406 19 1
18407 19 1
18408 38 1
18409 5 2
18409 10 1
18409 18 91
18409 19 110
18409 20 26
18409 34 1
18410 24 1
18411 18 25
18411 19 33
18411 20 8
18412 8 1
18413 24 4
18414 2 2
18414 3 2
18414 8 1
18414 14 1
18414 19 1
18414 20 1
18414 21 1
18414 24 1
18414 34 3
18414 38 3
18415 4 8
18415 5 32
18415 18 1
18415 38 48
18416 5 1
18417 21 2
18417 22 1
18417 24 42
18417 34 1
18418 2 1
18419 10 1
18419 16 1
18419 17 4
18420 21 1
18421 3 1
18422 31 1
18423 29 1
18424 29 2
18424 34 1
18425 5 2
18425 29 38
18425 30 6
18426 5 1
18427 24 10
18427 31 3
18427 38 1
18428 2 23
18428 3 29
18428 34 38
18429 28 2
18430 18 1
18430 20 1
18431 2 4
18431 3 15
18431 4 1
18431 5 4
18431 34 19
18431 38 13
18432 5 1
18433 12 1
18434 18 1
18435 3 1
18435 10 1
18436 2 1
18437 3 1
18438 19 1
18438 28 6
18439 4 1
18439 9 1
18439 10 1
18439 11 4
18440 34 1
18441 4 8
18441 5 35
18441 38 45
18442 9 5
18442 10 2
18442 11 6
18443 34 1
18444 20 1
18445 5 1
18445 34 1
18446 4 8
18446 5 40
18446 38 49
18447 23 1
18447 24 21
18448 21 1
18449 31 4
18450 24 1
18451 24 1
18452 15 1
18453 2 1
18453 3 11
18453 34 3
18454 38 1
18455 4 6
18455 5 21
18455 29 1
18455 38 19
18456 19 1
18457 21 1
18457 29 1
18458 10 1
18458 18 1
18458 19 1
18458 21 1
18458 34 1
18459 5 1
18459 38 2
18460 28 2
18461 34 1
18462 18 1
18463 21 1
18464 24 8
18465 2 15
18465 3 27
18465 18 1
18465 22 1
18465 34 26
18466 34 1
18467 38 1
18468 18 1
18469 7 1
18469 31 4
18470 18 12
18470 19 18
18470 20 6
18471 26 1
18472 26 1
18473 2 1
18473 3 3
18473 29 2
18473 34 4
18474 34 1
18475 17 1
18476 34 1
18477 23 1
18477 24 3
18478 2 1
18479 3 1
18479 9 3
18479 10 6
18479 11 1
18479 34 1
18480 19 1
18481 34 1
18482 14 1
18482 29 4
18482 30 1
18483 34 1
18484 5 1
18484 24 10
18485 7 1
18485 10 1
18485 12 1
18485 14 1
18485 18 1
18485 21 1
18485 24 2
18486 8 1
18487 5 2
18488 2 1
18489 24 1
18490 20 1
18491 31 20
18492 2 7
18492 3 29
18492 34 29
18493 14 1
18494 8 4
18495 3 1
18496 34 1
18497 24 1
18498 3 1
18499 12 24
18499 13 2
18499 14 18
18500 2 1
18500 3 7
18500 24 1
18500 34 11
18501 3 1
18501 10 1
18501 38 1
18502 38 1
18503 12 2
18504 9 1
18504 38 1
18505 14 1
18506 9 20
18506 10 35
18506 11 18
18506 34 1
18506 38 1
18507 38 1
18508 28 1
18509 38 1
18510 24 1
18511 19 1
18511 28 1
18512 29 1
18513 2 1
18513 3 1
18513 5 1
18513 8 2
18513 11 1
18513 14 1
18513 21 1
18513 22 1
18513 31 2
18513 34 1
18513 38 1
18514 2 1
18514 34 2
18515 29 1
18516 31 1
18516 38 1
18517 19 1
18517 34 1
18518 12 1
18519 12 9
18519 14 2
18520 10 1
18521 12 1
18521 21 8
18521 22 11
18522 21 1
18523 2 27
18523 3 49
18523 14 1
18523 34 51
18524 21 1
18525 5 1
18525 19 1
18526 34 1
18527 4 1
18527 12 13
18527 14 12
18528 22 1
18529 18 1
18530 15 1
18530 29 1
18531 34 1
18532 1 1
18532 2 28
18532 3 48
18532 18 2
18532 34 90
18533 19 1
18533 34 1
18534 5 1
18535 11 1
18535 29 8
18535 30 2
18536 21 4
18536 22 2
18537 21 8
18537 22 13
18538 5 1
18539 11 1
18540 3 1
18540 14 1
18541 12 1
18542 21 1
18542 29 1
18543 5 1
18544 8 1
18544 19 1
18545 3 1
18545 28 3
18546 5 1
18547 12 10
18547 14 2
18547 18 1
18547 19 1
18547 20 2
18548 9 1
18548 18 1
18549 2 24
18549 3 118
18549 5 1
18549 8 1
18549 34 163
18550 34 1
18551 3 1
18552 14 1
18552 34 1
18552 38 1
18553 2 2
18553 3 1
18553 5 1
18554 2 1
18554 4 3
18554 5 11
18554 28 1
18554 34 6
18554 38 10
18555 25 1
18556 5 1
18557 3 2
18558 2 21
18558 3 20
18558 34 28
18559 2 1
18560 2 3
18560 3 5
18560 34 6
18561 4 1
18561 29 1
18561 34 1
18562 11 1
18562 29 1
18562 34 1
18563 4 7
18563 5 24
18563 15 7
18563 16 5
18563 17 1
18563 38 27
18564 34 1
18565 22 1
18566 38 1
18567 19 2
18567 20 1
18568 31 3
18569 5 1
18569 7 1
18570 38 1
18571 5 1
18571 22 1
18572 11 1
18572 18 1
18572 20 1
18572 24 2
18572 34 1
18573 11 1
18573 31 19
18574 20 1
18575 29 1
18576 2 1
18576 10 1
18576 19 1
18576 24 2
18576 29 2
18576 38 1
18577 28 8
18578 3 1
18579 2 10
18579 3 19
18579 34 22
18580 3 1
18580 5 1
18580 10 1
18580 11 1
18580 21 1
18580 34 2
18580 38 2
18581 28 2
18582 29 1
18583 4 4
18583 5 26
18583 19 1
18583 29 1
18583 38 25
18584 18 1
18584 34 2
18584 38 1
18585 2 2
18585 7 1
18585 15 1
18585 24 1
18585 29 1
18585 38 1
18586 5 1
18587 3 2
18587 5 2
18587 11 1
18587 12 1
18587 16 3
18587 18 2
18587 24 1
18587 31 2
18587 34 2
18588 24 1
18588 26 2
18589 29 1
18590 18 5
18590 19 5
18590 20 1
18591 7 2
18591 8 29
18591 29 1
18591 38 2
18592 12 39
18592 13 1
18592 14 16
18592 18 1
18592 38 1
18593 3 1
18593 38 1
18594 2 2
18594 3 1
18594 5 1
18594 10 1
18594 14 1
18594 18 2
18594 21 1
18594 22 3
18594 24 5
18594 28 1
18594 29 1
18594 34 2
18594 38 2
18595 3 1
18595 10 1
18595 29 1
18596 4 1
18597 15 2
18597 16 2
18597 17 2
18597 21 1
18598 2 8
18598 3 4
18598 21 1
18598 34 7
18599 2 1
18599 34 1
18600 3 2
18600 8 1
18600 18 1
18600 19 2
18600 20 1
18600 22 1
18600 24 1
18601 24 5
18601 38 1
18602 7 1
18602 29 2
18602 34 2
18602 38 1
18603 2 6
18603 3 5
18603 34 7
18604 4 1
18604 28 6
18605 12 2
18606 3 1
18607 11 8
18608 5 1
18608 34 1
18608 38 1
18609 5 1
18609 29 1
18610 5 1
18611 3 1
18611 4 1
18611 5 5
18611 8 1
18611 9 1
18611 12 2
18611 14 2
18611 38 6
18612 16 1
18612 17 2
18612 19 1
18612 24 1
18613 38 1
18614 24 18
18615 38 1
18616 34 1
18617 3 1
18617 5 5
18617 31 1
18617 38 6
18618 21 1
18619 2 1
18619 8 1
18619 18 25
18619 19 16
18619 20 2
18620 18 51
18620 19 53
18620 20 18
18621 4 9
18621 5 25
18621 14 1
18621 38 24
18622 19 3
18623 38 1
18624 9 1
18625 5 1
18626 18 1
18627 3 1
18628 8 1
18629 3 1
18630 2 1
18630 26 5
18631 14 3
18632 11 1
18633 4 3
18633 5 4
18633 38 1
18634 34 1
18635 5 1
18636 15 4
18636 16 4
18636 17 2
18637 21 1
18637 34 1
18638 3 1
18638 18 33
18638 19 16
18638 20 9
18639 21 1
18640 5 1
18641 20 1
18642 3 1
18642 14 1
18642 19 1
18643 3 1
18643 24 1
18643 38 2
18644 21 1
18644 34 1
18645 15 13
18645 16 4
18645 17 12
18645 24 1
18646 5 1
18646 9 1
18647 29 1
18648 15 2
18648 16 1
18648 17 1
18649 18 1
18649 19 1
18650 29 2
18651 3 1
18652 2 1
18653 3 1
18653 5 1
18653 10 2
18653 14 1
18653 18 3
18653 19 2
18653 34 3
18654 12 10
18654 13 1
18654 14 15
18654 24 1
18654 28 1
18655 7 1
18655 21 2
18656 2 26
18656 3 49
18656 34 47
18657 31 1
18658 2 1
18658 3 9
18658 24 8
18658 34 9
18659 12 1
18659 20 1
18659 29 1
18660 3 1
18661 15 20
18661 16 13
18661 17 11
18661 24 1
18661 34 1
18662 10 1
18663 7 1
18663 8 5
18664 18 2
18664 19 5
18664 20 3
18665 3 1
18665 28 1
18666 2 4
18666 3 14
18666 34 12
18666 38 1
18667 21 7
18667 22 10
18668 31 4
18669 38 1
18670 12 9
18670 14 1
18670 38 1
18671 8 1
18671 22 1
18672 1 1
18672 2 14
18672 3 32
18672 31 3
18672 34 38
18673 10 5
18673 11 5
18673 38 1
18674 2 17
18674 3 22
18674 34 17
18675 24 3
18675 26 1
18677 5 1
18677 15 1
18677 24 2
18677 34 1
18677 38 1
18678 28 1
18679 5 1
18680 12 1
18681 18 1
18681 29 22
18681 30 1
18682 38 1
18683 27 1
18683 28 1
18683 34 1
18684 10 1
18685 24 4
18686 29 9
18687 16 1
18688 18 1
18688 19 1
18688 24 1
18689 38 1
18690 24 1
18691 24 2
18691 26 1
18692 21 11
18692 22 4
18693 8 1
18693 9 1
18693 18 1
18694 2 1
18694 3 2
18694 17 2
18694 34 1
18694 38 2
18695 24 1
18696 19 1
18697 24 1
18697 38 1
18698 19 1
18699 2 1
18699 12 1
18699 34 1
18700 3 1
18700 8 1
18700 34 1
18701 4 2
18701 5 19
18701 38 17
18702 24 1
18702 33 2
18703 3 1
18704 18 23
18704 19 22
18704 20 5
18705 34 1
18706 2 1
18707 3 1
18708 38 1
18709 12 1
18710 17 3
18711 24 7
18712 24 1
18713 34 1
18714 21 1
18714 24 3
18714 26 1
18715 9 1
18716 18 1
18717 18 2
18717 19 1
18718 29 1
18718 31 4
18719 34 1
18720 15 1
18720 18 1
18720 19 2
18720 24 1
18720 38 1
18721 34 1
18722 29 1
18722 31 1
18723 4 2
18723 5 10
18723 21 1
18723 38 12
18724 1 1
18724 2 12
18724 3 31
18724 34 42
18725 34 1
18726 34 1
18727 21 18
18727 22 14
18727 26 7
18727 38 1
18728 7 1
18728 8 2
18729 34 1
18730 38 1
18731 14 1
18731 15 1
18731 17 2
18732 15 3
18733 2 6
18733 3 12
18733 34 20
18734 29 14
18735 12 1
18735 13 1
18735 14 1
18735 18 16
18735 19 16
18735 20 14
18736 34 1
18737 11 1
18738 18 1
18739 38 1
18740 21 17
18740 22 5
18741 4 3
18741 5 15
18741 38 13
18742 24 8
18743 34 1
18744 2 3
18744 3 14
18744 34 15
18745 26 1
18746 24 1
18746 29 4
18746 34 1
18747 24 5
18748 31 1
18749 18 1
18750 2 2
18750 3 3
18750 34 2
18751 34 1
18752 29 1
18753 19 1
18753 21 1
18754 8 1
18754 20 1
18754 21 1
18754 24 1
18754 29 2
18754 34 1
18754 38 1
18755 19 1
18756 19 1
18757 12 9
18757 14 7
18758 10 1
18759 34 1
18760 2 1
18760 38 1
18761 34 1
18762 2 17
18762 3 45
18762 20 1
18762 34 53
18763 18 1
18763 21 1
18763 34 1
18764 31 1
18765 21 1
18766 29 10
18766 30 1
18767 5 1
18767 8 1
18767 18 2
18767 19 1
18768 18 1
18769 17 1
18770 11 1
18770 31 2
18771 14 1
18771 19 1
18771 29 2
18771 38 1
18772 10 1
18773 31 1
18774 2 1
18774 38 1
18775 29 1
18776 3 1
18777 3 1
18778 31 11
18779 29 11
18780 5 1
18780 15 1
18780 16 1
18780 17 2
18780 18 1
18781 22 1
18781 24 3
18782 11 1
18783 24 1
18784 38 1
18785 4 1
18785 5 1
18785 29 1
18785 34 1
18785 38 11
18786 23 1
18786 24 16
18786 29 1
18787 24 6
18788 23 1
18788 24 15
18789 12 1
18789 28 1
18790 18 1
18792 15 1
18793 3 1
18794 20 1
18795 24 1
18796 9 5
18796 10 4
18796 11 8
18797 20 1
18797 28 1
18798 14 1
18798 18 1
18799 24 1
18799 28 2
18799 31 1
18800 5 1
18801 34 1
18802 21 1
18802 22 1
18803 18 1
18803 24 1
18804 10 1
18804 18 19
18804 19 26
18804 20 9
18805 24 1
18806 2 24
18806 3 30
18806 24 17
18806 31 2
18806 34 31
18807 34 1
18808 29 1
18809 2 1
18809 12 6
18809 14 5
18810 11 1
18810 18 1
18810 29 1
18810 31 2
18810 34 1
18810 38 1
18811 3 2
18811 9 1
18811 11 1
18811 34 1
18812 3 1
18812 34 3
18813 15 3
18813 16 2
18814 18 53
18814 20 14
18815 29 1
18816 28 2
18817 5 1
18818 7 13
18818 8 15
18818 18 1
18819 15 1
18820 14 22
18820 19 34
18820 20 12
18820 34 1
18821 20 1
18822 18 1
18822 19 2
18823 2 1
18823 4 1
18823 5 1
18823 12 1
18823 34 3
18824 8 1
18825 12 1
18826 2 1
18826 19 1
18826 22 1
18826 25 1
18826 26 12
18827 11 1
18828 4 1
18828 5 7
18828 18 1
18828 38 4
18829 3 2
18829 5 1
18829 9 1
18829 18 1
18829 31 1
18829 34 2
18830 31 9
18831 34 1
18832 12 2
18832 22 1
18832 28 3
18833 21 5
18833 22 3
18834 2 1
18834 17 2
18835 10 1
18835 11 2
18836 3 1
18836 14 1
18836 18 1
18836 24 1
18836 29 1
18836 34 1
18836 38 2
18837 1 1
18837 2 5
18837 3 12
18837 8 1
18837 15 1
18837 18 1
18837 24 1
18837 26 1
18837 34 18
18838 4 1
18838 5 1
18838 10 1
18838 24 1
18838 34 2
18839 29 1
18840 24 1
18841 31 4
18842 19 1
18843 3 1
18843 15 1
18844 5 1
18844 34 1
18845 5 1
18846 21 7
18846 22 7
18846 34 1
18847 38 1
18848 29 1
18849 9 3
18849 10 10
18849 11 6
18849 18 3
18849 19 2
18850 10 1
18851 15 1
18851 26 6
18852 22 1
18853 3 1
18853 8 1
18853 18 1
18854 18 1
18855 4 1
18856 29 1
18857 22 1
18858 14 1
18859 9 1
18860 17 1
18861 2 1
18861 3 1
18861 5 1
18861 34 3
18862 12 1
18862 28 3
18862 29 1
18863 38 1
18864 19 1
18865 10 1
18865 12 6
18865 14 4
18865 29 2
18865 38 1
18866 34 1
18867 31 1
18868 3 1
18869 29 3
18870 28 4
18871 29 2
18872 18 29
18872 19 33
18872 20 16
18872 38 1
18873 18 1
18874 3 1
18875 24 1
18876 3 1
18876 5 1
18876 9 1
18876 12 2
18876 19 1
18876 24 1
18876 29 1
18876 31 2
18876 34 2
18876 38 3
18877 9 1
18877 10 2
18877 21 2
18877 22 4
18878 19 1
18879 21 5
18879 22 9
18880 31 1
18881 9 1
18882 4 1
18882 5 4
18882 38 8
18883 12 36
18883 13 2
18883 14 22
18884 12 11
18884 13 2
18884 14 10
18885 21 2
18885 25 2
18885 26 5
18885 28 3
18886 31 1
18887 18 1
18887 19 3
18888 16 1
18888 34 1
18889 34 1
18890 21 18
18890 22 11
18891 21 1
18892 5 1
18892 22 1
18893 18 20
18893 19 19
18893 20 9
18894 19 1
18895 21 1
18896 12 1
18897 26 1
18898 11 1
18899 21 17
18899 22 15
18899 34 1
18900 18 1
18901 38 1
18902 4 3
18902 5 13
18902 38 9
18903 3 1
18903 12 1
18903 28 2
18904 15 7
18904 16 10
18904 17 12
18905 19 1
18906 38 2
18907 5 1
18907 11 1
18907 19 1
18908 4 1
18908 29 1
18908 31 1
18909 31 8
18909 34 1
18910 29 1
18911 31 4
18912 2 1
18913 10 1
18914 18 1
18914 30 1
18915 3 1
18916 24 4
18917 31 4
18918 18 1
18919 24 1
18920 34 1
18921 38 1
18922 24 1
18923 34 1
18924 3 1
18924 24 1
18924 38 1
18925 5 1
18925 9 3
18925 10 4
18925 11 2
18925 38 3
18926 19 2
18926 29 1
18927 18 1
18928 8 1
18929 28 4
18930 23 1
18930 24 3
18931 24 1
18932 14 1
18932 26 2
18933 2 10
18933 3 40
18933 19 1
18933 28 1
18933 34 56
18934 31 1
18935 10 1
18935 11 1
18936 21 9
18936 22 4
18937 3 1
18937 12 6
18937 14 1
18938 3 4
18938 5 1
18938 8 1
18938 24 1
18938 34 1
18938 38 2
18939 10 1
18940 24 2
18940 29 2
18941 7 5
18941 8 7
18942 24 18
18943 31 7
18944 14 1
18944 21 8
18944 22 5
18945 24 1
18946 4 1
18946 12 1
18946 15 1
18946 23 1
18946 31 1
18946 38 1
18947 9 1
18948 3 1
18948 18 1
18948 22 2
18948 29 1
18949 12 8
18949 14 7
18950 2 1
18950 24 4
18951 34 1
18952 38 1
18953 22 1
18954 5 1
18954 14 1
18955 3 1
18955 29 2
18956 5 1
18956 31 1
18957 29 9
18958 18 3
18958 19 5
18958 20 2
18959 11 1
18960 21 13
18960 22 11
18961 9 1
18961 10 1
18962 19 1
18963 34 1
18964 34 1
18965 21 8
18965 22 16
18965 38 1
18966 21 5
18966 22 12
18967 3 1
18967 18 38
18967 19 53
18967 20 20
18968 3 1
18969 31 1
18970 24 9
18971 38 1
18972 2 9
18972 3 25
18972 34 29
18973 5 1
18973 14 1
18973 16 1
18974 9 1
18974 28 4
18975 12 1
18976 3 1
18977 29 1
18978 10 1
18979 14 1
18980 3 1
18981 28 3
18982 13 1
18982 14 10
18983 19 1
18984 22 1
18985 3 1
18986 29 1
18986 34 1
18987 18 6
18987 19 10
18988 3 1
18988 10 1
18988 12 1
18988 15 1
18988 16 1
18988 18 7
18988 19 11
18988 20 1
18989 18 8
18989 19 13
18989 20 2
18990 19 1
18990 29 2
18991 34 1
18992 38 1
18993 24 1
18993 29 4
18994 4 6
18994 5 33
18994 38 41
18995 5 1
18996 2 1
18997 3 1
18998 2 1
18999 38 1
19000 38 1
19001 14 1
19002 10 1
19003 2 2
19003 3 1
19003 5 1
19003 8 1
19003 12 2
19003 19 2
19003 29 3
19003 31 1
19003 34 1
19003 38 3
19004 31 1
19005 34 1
19006 2 1
19007 3 1
19008 4 8
19008 5 39
19008 38 37
19009 8 1
19010 2 3
19010 3 1
19010 15 5
19010 16 2
19010 19 1
19011 9 1
19012 12 19
19012 13 1
19012 14 10
19012 24 1
19012 38 1
19013 34 1
19014 8 2
19014 34 1
19015 17 1
19015 21 25
19015 22 20
19016 5 1
19017 19 1
19018 15 1
19018 34 1
19019 34 1
19020 2 3
19020 3 2
19020 5 1
19020 8 1
19020 12 3
19020 14 2
19020 18 2
19020 19 4
19020 22 1
19020 24 2
19020 34 3
19020 38 3
19021 15 1
19022 28 2
19022 29 1
19023 29 2
19024 18 1
19025 28 2
19026 3 1
19027 34 1
19028 5 1
19028 21 1
19028 38 1
19029 31 1
19030 21 1
19030 29 1
19030 34 1
19031 12 1
19031 15 1
19031 16 2
19031 22 1
19032 9 1
19033 24 13
19034 5 1
19035 11 1
19036 2 1
19036 3 1
19036 5 2
19036 8 1
19036 10 1
19036 11 1
19036 14 1
19036 16 1
19036 17 2
19036 19 1
19036 22 1
19036 24 3
19036 29 1
19036 38 1
19037 31 1
19038 34 1
19039 4 1
19039 29 30
19039 30 5
19040 19 1
19040 34 2
19041 9 1
19041 31 1
19042 34 1
19043 9 1
19044 2 1
19045 3 3
19045 4 1
19045 7 1
19045 9 1
19045 10 1
19045 34 1
19045 38 1
19046 34 1
19047 19 1
19047 20 2
19048 19 1
19049 19 1
19050 18 1
19051 21 1
19052 29 1
19053 19 1
19054 19 1
19054 38 1
19055 29 1
19056 19 1
19056 24 10
19057 30 1
19058 8 1
19059 26 1
19060 29 15
19060 30 1
19061 19 1
19062 4 1
19063 18 16
19063 19 12
19063 20 4
19063 21 2
19064 34 1
19065 19 1
19066 21 4
19066 22 2
19066 30 1
19067 10 1
19068 29 14
19068 30 1
19069 5 1
19069 7 3
19069 8 3
19069 31 7
19069 38 1
19070 18 1
19070 21 1
19070 24 6
19070 29 1
19070 38 1
19071 2 1
19071 19 1
19071 24 1
19071 34 1
19072 2 5
19072 3 7
19072 4 7
19072 5 35
19072 25 1
19072 26 3
19072 34 5
19072 38 30
19073 3 1
19073 12 1
19073 15 1
19073 34 4
19074 29 2
19075 29 1
19076 29 17
19076 30 1
19076 38 1
19077 3 1
19078 31 1
19079 3 1
19079 24 1
19080 17 1
19081 15 1
19082 9 1
19082 11 1
19083 29 1
19084 9 4
19084 10 2
19084 11 2
19085 3 1
19086 3 1
19087 14 1
19087 15 6
19087 16 2
19087 17 2
19088 1 1
19088 2 10
19088 3 21
19088 34 28
19089 34 1
19090 22 1
19090 29 1
19091 3 1
19091 12 1
19091 14 1
19091 15 1
19091 20 1
19091 28 1
19091 34 1
19091 38 1
19092 29 2
19093 3 1
19094 24 2
19095 24 1
19096 29 1
19097 31 1
19098 14 2
19098 21 26
19098 22 18
19098 38 1
19099 4 11
19099 5 43
19099 18 1
19099 38 39
19100 5 1
19100 29 5
19100 38 2
19101 31 18
19102 18 1
19103 3 1
19103 24 3
19103 25 1
19103 26 1
19103 34 1
19104 7 11
19104 8 23
19105 3 2
19105 5 1
19105 9 1
19105 12 1
19105 15 1
19105 18 1
19105 22 2
19105 29 2
19105 31 2
19105 34 3
19106 11 1
19107 16 1
19107 24 4
19107 34 1
19108 21 16
19108 22 9
19109 21 1
19109 31 13
19110 1 2
19110 2 9
19110 3 39
19110 34 35
19111 28 3
19112 34 1
19113 31 6
19114 3 1
19114 21 1
19114 31 1
19114 34 1
19115 2 1
19115 20 1
19115 22 1
19115 38 1
19116 10 1
19116 21 4
19116 22 3
19117 24 1
19118 26 1
19119 4 2
19119 5 9
19119 21 1
19119 38 9
19120 2 1
19120 10 2
19120 24 1
19121 19 1
19122 24 2
19123 38 1
19124 24 2
19125 2 1
19126 2 2
19126 5 1
19126 10 1
19126 11 1
19126 14 2
19126 18 3
19126 21 1
19126 24 2
19126 34 4
19126 38 1
19127 34 1
19128 15 13
19128 16 5
19128 17 7
19128 19 1
19129 38 1
19130 29 1
19131 3 1
19132 2 2
19132 3 3
19132 5 4
19132 8 1
19132 11 2
19132 18 2
19132 19 1
19132 21 1
19132 29 1
19132 38 1
19133 8 1
19134 5 1
19134 38 1
19135 28 1
19136 21 2
19136 22 10
19137 3 1
19138 24 4
19138 38 1
19139 18 1
19140 34 1
19141 3 1
19142 4 2
19142 5 5
19142 38 6
19143 26 1
19144 38 1
19145 9 1
19146 8 2
19147 31 1
19148 9 1
19148 10 1
19148 11 3
19148 18 1
19149 29 4
19150 19 1
19151 21 4
19151 22 1
19152 3 1
19152 12 1
19153 12 1
19154 3 1
19154 5 1
19154 11 1
19155 3 1
19156 1 1
19156 2 7
19156 3 14
19156 34 12
19157 3 1
19158 19 1
19158 29 1
19158 34 2
19159 7 1
19159 8 1
19159 29 1
19160 34 1
19161 2 2
19161 12 1
19161 19 1
19161 24 1
19161 30 1
19161 34 1
19162 9 3
19162 10 2
19162 11 1
19162 18 1
19163 3 1
19163 4 1
19163 24 8
19164 30 1
19165 16 1
19165 26 1
19166 3 1
19166 24 16
19167 34 1
19168 22 1
19168 28 1
19169 2 1
19170 34 1
19171 5 1
19171 9 1
19171 10 4
19171 11 5
19172 18 1
19173 5 1
19174 29 1
19175 2 1
19176 4 1
19177 29 1
19178 28 1
19179 21 70
19179 22 41
19179 29 1
19180 21 1
19181 5 1
19181 8 1
19181 12 13
19181 13 1
19181 14 16
19181 24 1
19182 34 1
19183 38 1
19185 2 1
19185 25 1
19185 26 8
19186 15 22
19186 16 17
19186 17 18
19187 5 1
19187 31 13
19188 15 1
19188 34 1
19189 5 1
19190 19 1
19190 24 1
19190 34 1
19191 24 1
19192 18 2
19192 19 3
19193 34 1
19194 18 1
19195 4 1
19195 5 1
19195 20 1
19195 28 1
19195 34 1
19196 24 26
19196 34 1
19197 3 1
19198 16 1
19198 17 2
19198 18 1
19199 2 15
19199 3 27
19199 34 25
19200 29 1
19201 29 1
19202 2 11
19202 3 23
19202 34 29
19203 2 1
19203 17 1
19203 19 1
19204 3 1
19205 2 1
19205 34 1
19206 3 1
19207 8 1
19207 34 1
19208 29 1
19208 34 1
19209 9 1
19209 10 5
19210 31 3
19211 2 1
19211 15 12
19211 16 8
19211 17 5
19212 31 15
19213 31 17
19214 31 2
19215 34 1
19216 1 1
19216 2 11
19216 3 19
19216 34 11
19217 2 1
19217 3 2
19217 27 1
19217 28 1
19217 29 4
19217 31 2
19217 34 3
19218 12 5
19218 14 1
19219 21 1
19220 2 1
19221 19 1
19222 2 1
19223 1 1
19223 2 7
19223 3 7
19223 34 12
19224 1 1
19224 2 6
19224 3 19
19224 16 1
19224 18 2
19224 19 1
19224 20 1
19224 21 1
19224 25 2
19224 26 2
19224 34 16
19225 12 1
19225 24 1
19225 34 1
19226 3 1
19226 5 1
19226 10 1
19226 12 1
19226 19 1
19226 22 1
19226 24 1
19226 26 3
19226 29 1
19226 30 1
19226 34 1
19226 38 2
19227 18 1
19227 19 2
19227 20 2
19228 29 9
19229 29 1
19230 31 1
19231 5 1
19231 31 3
19232 38 1
19233 31 1
19234 3 1
19235 19 1
19236 34 1
19237 3 1
19237 5 1
19238 12 30
19238 14 18
19239 24 1
19240 2 1
19240 31 7
19241 25 1
19241 26 8
19242 3 1
19242 24 2
19242 26 1
19243 19 1
19244 2 1
19244 18 1
19244 24 2
19244 29 1
19245 26 1
19245 27 1
19245 28 10
19246 31 1
19247 24 12
19248 8 2
19248 31 18
19248 34 1
19249 38 1
19250 34 2
19251 3 1
19251 7 2
19251 8 6
19251 14 1
19251 22 1
19252 21 20
19252 22 24
19253 16 1
19254 15 1
19255 3 1
19256 5 1
19256 31 1
19257 10 1
19258 34 1
19259 38 1
19260 12 4
19260 14 6
19261 2 1
19261 31 1
19262 21 1
19263 3 1
19264 31 1
19265 34 1
19266 2 15
19266 3 39
19266 4 1
19266 34 46
19267 3 2
19268 8 1
19269 15 4
19270 5 1
19270 19 1
19270 31 7
19271 2 2
19271 3 10
19271 34 9
19271 38 1
19272 4 1
19272 26 2
19273 38 1
19274 23 1
19274 24 8
19275 28 1
19276 10 1
19277 19 1
19278 38 1
19279 15 1
19280 38 1
19281 29 1
19282 5 1
19282 17 1
19282 38 1
19283 2 5
19283 3 11
19283 34 17
19284 2 10
19284 3 28
19284 34 31
19285 19 1
19285 29 1
19285 34 2
19285 38 1
19286 20 1
19287 22 1
19288 28 4
19289 28 2
19289 29 5
19289 30 1
19289 34 1
19290 29 8
19291 34 1
19292 31 1
19293 3 2
19293 5 1
19293 17 1
19294 18 18
19294 19 16
19294 20 8
19295 16 1
19296 3 1
19297 18 1
19298 18 1
19299 2 1
19299 3 3
19299 12 1
19299 18 1
19299 29 25
19299 30 3
19299 38 1
19300 34 1
19301 2 1
19302 3 1
19303 23 1
19303 24 5
19304 3 1
19305 4 4
19305 5 14
19305 38 21
19306 4 1
19306 18 10
19306 19 11
19306 34 2
19307 12 2
19307 14 1
19308 34 1
19309 24 3
19310 18 3
19310 21 1
19310 22 1
19310 26 1
19311 9 23
19311 10 38
19311 11 26
19312 10 1
19313 29 11
19313 30 1
19314 2 1
19314 20 1
19315 3 1
19315 12 1
19315 24 1
19315 38 1
19316 31 2
19317 7 3
19317 8 7
19317 15 2
19317 16 1
19317 29 1
19317 34 1
19318 24 1
19319 14 1
19319 16 1
19319 24 43
19320 29 8
19320 30 1
19321 29 30
19321 30 3
19321 34 1
19322 24 1
19323 8 1
19324 4 2
19324 5 3
19324 38 2
19325 18 1
19325 20 1
19326 24 1
19327 5 1
19328 26 2
19329 3 1
19329 12 2
19329 18 1
19329 21 1
19329 24 1
19329 34 1
19329 38 1
19330 12 1
19330 15 5
19330 17 3
19331 12 1
19331 14 1
19332 14 1
19332 21 1
19333 23 1
19333 24 8
19334 14 1
19335 2 1
19335 3 2
19335 5 3
19335 8 1
19335 9 1
19335 18 1
19335 21 1
19335 29 1
19335 34 1
19335 38 1
19336 28 2
19336 29 1
19337 3 1
19337 9 3
19337 10 9
19337 11 2
19338 2 1
19339 5 1
19339 38 1
19340 24 6
19341 34 1
19342 34 1
19343 1 1
19343 2 14
19343 3 45
19343 24 1
19343 29 2
19343 30 1
19343 34 77
19344 5 1
19345 2 9
19345 3 13
19345 34 17
19346 7 4
19346 8 5
19346 26 1
19347 18 1
19348 24 1
19349 18 5
19349 19 1
19350 1 1
19350 2 14
19350 3 32
19350 34 26
19351 12 1
19352 21 28
19352 22 18
19352 24 1
19352 34 1
19353 4 1
19353 19 1
19353 31 1
19353 38 1
19354 18 1
19354 29 8
19355 12 12
19355 14 6
19356 24 10
19357 15 14
19357 16 6
19357 17 12
19358 21 16
19358 22 8
19359 5 1
19360 20 1
19361 18 1
19362 7 16
19362 8 31
19363 24 1
19364 4 12
19364 5 25
19364 15 1
19364 38 20
19365 8 1
19365 12 3
19365 14 2
19365 25 1
19366 15 1
19366 21 1
19367 24 1
19368 18 1
19369 3 1
19369 29 14
19369 30 1
19370 18 3
19370 19 1
19370 20 1
19371 8 1
19371 28 2
19371 38 2
19372 3 1
19373 2 1
19373 18 2
19373 19 5
19373 20 2
19374 14 1
19375 29 2
19376 4 1
19376 5 12
19376 29 1
19376 38 12
19377 17 1
19378 34 1
19379 2 1
19380 20 1
19380 22 1
19381 14 1
19381 24 1
19382 8 1
19383 34 1
19384 3 1
19385 3 1
19385 34 1
19386 31 1
19387 34 1
19388 29 13
19389 1 1
19389 2 13
19389 3 26
19389 34 33
19390 21 1
19391 21 1
19392 29 3
19393 28 10
19394 30 1
19395 24 1
19396 9 5
19396 10 11
19396 11 4
19397 29 1
19398 23 1
19398 29 9
19399 5 1
19400 38 1
19401 31 1
19402 9 1
19402 20 1
19402 31 1
19403 18 6
19403 19 4
19403 20 5
19404 28 3
19405 38 1
19406 5 1
19407 34 1
19408 28 2
19409 29 1
19410 20 2
19411 29 1
19412 12 26
19412 13 1
19412 14 25
19412 15 27
19412 16 18
19412 17 28
19413 38 1
19414 34 1
19415 18 1
19415 34 1
19416 4 2
19416 5 9
19416 38 6
19417 12 1
19417 14 2
19417 19 1
19417 21 1
19417 31 1
19417 34 3
19418 1 1
19418 2 14
19418 3 28
19418 14 1
19418 21 1
19418 24 1
19418 34 32
19419 29 21
19419 30 2
19420 31 8
19421 22 1
19422 5 1
19423 10 1
19423 11 1
19423 15 1
19423 19 1
19423 21 1
19423 22 1
19423 24 3
19423 34 2
19423 38 2
19424 22 1
19425 31 1
19426 3 1
19426 9 4
19426 10 12
19426 11 3
19427 4 4
19427 5 35
19427 20 1
19427 22 1
19427 34 1
19427 38 32
19428 2 6
19428 3 1
19428 31 3
19428 34 4
19429 31 1
19430 8 1
19431 5 1
19432 12 1
19432 22 1
19433 2 1
19433 18 1
19433 19 1
19433 22 2
19433 34 1
19434 10 1
19435 9 10
19435 10 14
19435 11 17
19435 19 1
19435 34 1
19436 17 1
19437 18 1
19437 29 10
19438 3 1
19438 21 1
19439 3 1
19440 21 1
19440 24 18
19440 34 1
19441 28 3
19442 12 1
19442 31 1
19442 34 2
19443 18 1
19443 31 1
19444 2 1
19445 22 27
19446 24 9
19447 3 1
19447 9 8
19447 10 8
19447 11 4
19448 15 4
19448 16 2
19448 17 2
19448 22 1
19449 34 1
19450 1 2
19450 2 13
19450 3 33
19450 21 1
19450 34 49
19451 24 1
19452 8 1
19452 24 1
19453 19 1
19454 12 1
19454 31 1
19454 34 1
19455 20 1
19456 18 1
19456 19 1
19456 34 1
19457 19 1
19458 22 1
19458 28 1
19459 5 3
19459 38 3
19460 28 1
19460 29 1
19461 10 1
19462 3 1
19462 11 1
19463 15 24
19463 16 12
19463 17 13
19464 7 8
19464 8 9
19464 14 1
19465 9 1
19465 10 3
19465 11 2
19466 3 1
19467 28 10
19468 19 1
19469 29 6
19470 4 2
19470 5 8
19470 8 1
19470 22 1
19470 38 14
19471 34 1
19472 29 1
19472 38 1
19473 29 1
19474 18 2
19475 34 1
19476 16 1
19477 5 1
19477 22 1
19478 3 1
19478 7 1
19478 13 1
19478 14 1
19478 15 2
19478 24 1
19478 29 1
19479 31 2
19479 34 2
19480 29 1
19480 38 2
19481 12 1
19481 29 1
19482 28 6
19482 34 1
19483 11 1
19484 2 1
19485 12 3
19485 14 1
19485 21 3
19486 2 6
19486 3 19
19486 5 1
19486 34 23
19486 38 1
19487 2 1
19488 31 26
19489 4 1
19489 29 1
19490 31 1
19491 28 1
19491 38 1
19492 5 1
19493 18 9
19493 19 8
19493 20 3
19494 3 1
19494 12 1
19494 14 1
19494 18 40
19494 19 47
19494 20 13
19495 31 1
19496 18 1
19497 9 1
19497 10 2
19497 11 5
19498 3 1
19498 5 1
19498 18 1
19498 19 2
19498 21 1
19498 22 1
19498 29 1
19498 38 2
19499 24 1
19499 31 5
19500 31 5
19501 18 1
19501 21 28
19501 22 19
19502 3 2
19502 10 1
19502 22 1
19502 28 1
19502 29 1
19503 4 5
19503 5 15
19503 26 1
19503 38 6
19504 38 1
19505 15 2
19505 16 3
19505 17 2
19505 18 1
19505 19 1
19506 9 4
19506 10 13
19506 11 5
19507 3 2
19508 15 1
19509 34 1
19510 28 1
19511 3 1
19511 19 1
19511 28 7
19512 9 1
19512 29 7
19513 3 1
19514 2 1
19514 19 1
19514 31 1
19514 34 1
19514 38 1
19515 10 1
19516 34 1
19517 15 1
19517 24 1
19518 22 1
19518 28 1
19519 38 1
19520 16 1
19520 19 1
19521 21 1
19522 19 1
19523 19 1
19523 34 2
19524 31 4
19525 38 1
19526 9 1
19527 34 1
19528 2 1
19528 9 12
19528 11 18
19528 38 1
19529 20 1
19530 18 1
19531 12 1
19531 18 6
19531 19 5
19531 20 2
19532 10 1
19532 19 1
19532 21 2
19532 22 1
19532 24 1
19532 29 1
19532 31 2
19532 34 1
19533 9 1
19533 11 1
19533 12 2
19533 15 2
19533 19 1
19533 22 1
19533 24 1
19533 28 1
19533 34 2
19534 5 1
19535 38 1
19536 12 23
19536 13 1
19536 14 17
19536 31 1
19536 38 1
19537 21 12
19537 22 6
19538 5 1
19539 24 1
19540 16 2
19541 3 1
19542 17 1
19542 21 17
19542 22 16
19542 31 1
19543 3 3
19543 5 2
19543 10 1
19543 11 1
19543 18 2
19543 21 1
19543 24 1
19544 5 1
19544 12 1
19544 14 3
19544 38 1
19545 24 7
19546 38 2
19547 21 1
19548 29 1
19549 3 1
19549 29 8
19549 34 1
19550 15 1
19551 24 5
19552 10 2
19553 18 1
19553 19 4
19554 8 1
19555 10 3
19555 11 3
19555 19 1
19556 3 1
19556 24 4
19557 29 11
19557 30 4
19558 15 4
19558 16 1
19559 12 3
19559 21 12
19559 22 10
19560 8 1
19560 24 1
19561 12 1
19561 17 1
19561 19 1
19561 24 1
19561 29 1
19561 34 1
19561 38 1
19562 29 1
19562 30 1
19563 19 1
19564 38 1
19565 3 2
19566 4 4
19566 5 22
19566 38 14
19567 2 1
19567 15 1
19568 10 2
19569 15 1
19569 24 1
19570 34 1
19571 10 1
19572 9 5
19572 10 12
19572 11 8
19573 38 1
19574 21 4
19574 22 2
19575 26 1
19576 11 1
19577 23 1
19577 24 8
19578 3 3
19578 4 2
19578 20 1
19578 21 1
19578 22 1
19578 29 1
19578 34 1
19579 2 8
19579 3 18
19579 34 11
19580 34 1
19581 19 1
19582 19 1
19582 21 1
19583 3 1
19583 10 1
19583 19 1
19583 34 3
19584 18 1
19584 29 13
19584 30 2
19585 29 27
19585 30 3
19586 3 1
19587 5 1
19588 2 1
19588 24 1
19588 31 1
19588 34 1
19589 3 3
19589 34 1
19590 4 2
19590 5 2
19590 34 1
19590 38 2
19591 7 2
19591 8 3
19591 14 1
19592 5 1
19592 24 1
19593 1 1
19593 2 10
19593 3 11
19593 31 1
19593 34 17
19594 19 1
19595 31 2
19595 34 1
19596 3 1
19596 28 1
19596 29 5
19597 18 1
19597 19 1
19598 19 1
19599 18 1
19600 5 1
19600 10 1
19601 29 20
19601 30 3
19602 38 1
19603 18 46
19603 19 50
19603 20 14
19604 3 1
19605 24 1
19606 24 2
19607 31 1
19608 3 1
19609 38 1
19610 10 1
19611 2 1
19612 3 1
19612 4 4
19612 5 4
19612 19 1
19612 38 10
19613 15 1
19614 34 1
19615 11 1
19616 20 1
19617 5 1
19617 10 1
19617 18 2
19617 19 1
19617 29 1
19617 31 1
19618 24 1
19619 3 1
19620 15 7
19620 16 2
19620 17 3
19620 19 1
19621 29 26
19621 30 4
19622 7 1
19623 3 1
19623 21 1
19623 22 1
19624 3 1
19625 2 1
19625 12 1
19625 34 1
19626 29 1
19627 14 1
19627 18 1
19628 2 1
19628 5 1
19628 9 1
19628 15 1
19628 18 1
19628 24 1
19628 29 1
19628 34 1
19628 38 1
19629 3 1
19630 31 7
19631 24 7
19632 18 1
19633 34 1
19634 2 1
19634 15 1
19634 17 1
19635 10 1
19635 14 1
19635 19 1
19635 21 1
19635 22 1
19635 34 3
19636 38 1
19637 34 1
19638 3 1
19638 5 1
19638 15 1
19638 18 1
19638 21 1
19638 34 1
19639 29 1
19640 29 11
19641 19 1
19642 12 1
19643 18 12
19643 19 18
19643 20 12
19644 38 1
19645 29 1
19646 29 14
19646 30 1
19647 24 1
19648 31 5
19649 38 1
19650 24 1
19651 4 5
19651 5 27
19651 38 21
19652 8 1
19653 3 1
19653 17 1
19653 29 1
19654 8 2
19655 28 1
19656 16 1
19657 12 1
19657 17 1
19658 2 1
19658 10 1
19658 11 1
19658 22 1
19659 2 1
19659 3 2
19659 5 1
19659 19 1
19659 21 1
19659 24 3
19659 29 1
19659 38 1
19660 17 3
19661 26 3
19662 34 1
19663 5 4
19663 38 6
19664 20 1
19664 22 1
19665 24 3
19666 34 1
19667 18 1
19667 19 2
19667 20 1
19668 12 5
19668 14 5
19669 8 2
19670 34 1
19671 15 6
19671 16 1
19671 17 4
19672 3 1
19672 7 13
19672 8 27
19672 28 2
19673 21 2
19673 26 3
19673 31 1
19674 3 1
19675 19 1
19675 34 1
19676 29 1
19677 3 1
19678 14 1
19679 16 1
19680 19 1
19681 21 1
19682 26 4
19682 38 1
19683 29 2
19684 3 1
19685 15 12
19685 16 3
19685 17 7
19686 4 1
19686 24 4
19686 29 1
19686 34 1
19687 29 1
19688 18 1
19689 24 2
19690 21 1
19690 28 3
19691 10 1
19692 24 1
19693 12 2
19693 14 1
19694 1 2
19694 2 23
19694 3 46
19694 20 1
19694 34 41
19695 8 1
19696 2 1
19696 5 4
19696 38 8
19697 3 1
19698 7 4
19698 8 8
19699 5 1
19699 22 1
19699 34 1
19700 8 1
19700 29 1
19701 9 5
19701 10 18
19701 11 14
19701 18 15
19701 19 8
19701 20 5
19701 29 1
19702 16 1
19702 18 1
19702 21 1
19703 8 1
19703 11 1
19703 16 1
19703 18 2
19703 19 1
19703 21 1
19703 24 2
19703 28 1
19704 12 3
19704 14 4
19704 34 1
19705 14 1
19706 3 1
19707 18 1
19708 3 1
19708 4 4
19708 5 13
19708 38 13
19709 2 1
19709 3 2
19709 12 1
19709 15 1
19709 34 2
19710 21 1
19711 21 5
19711 22 3
19712 14 1
19712 17 1
19712 34 1
19713 4 5
19713 5 16
19713 9 1
19713 31 1
19713 38 13
19714 4 1
19714 18 1
19715 22 1
19716 5 1
19717 34 1
19718 8 1
19718 16 1
19718 18 26
19718 19 30
19718 20 11
19718 34 1
19719 38 1
19720 31 1
19721 3 1
19721 4 3
19721 5 14
19721 38 13
19722 31 1
19723 5 1
19724 8 2
19725 34 1
19726 22 1
19727 31 1
19727 34 2
19727 38 1
19728 9 4
19728 10 31
19728 11 16
19728 12 1
19728 38 1
19729 28 1
19730 22 2
19730 31 2
19730 34 1
19731 28 1
19732 3 1
19732 31 1
19733 10 1
19733 12 14
19733 14 10
19734 12 4
19734 14 1
19734 19 2
19734 22 1
19735 38 1
19736 12 1
19737 24 1
19737 31 3
19738 30 1
19739 2 1
19740 18 1
19741 31 2
19742 1 1
19742 18 1
19743 9 1
19743 24 11
19744 24 3
19745 2 1
19745 3 9
19745 34 4
19746 7 4
19746 8 12
19747 20 1
19748 11 1
19749 13 1
19750 28 1
19751 12 51
19751 13 1
19751 14 18
19751 20 1
19752 21 3
19753 2 3
19753 3 8
19753 34 9
19754 19 1
19755 22 1
19756 18 8
19756 19 12
19756 20 1
19757 34 1
19758 29 1
19758 31 7
19759 5 1
19760 10 2
19760 11 5
19760 24 1
19761 7 6
19761 8 7
19761 18 1
19762 2 1
19762 3 3
19762 34 1
19763 5 1
19764 18 1
19765 22 1
19766 1 2
19766 2 5
19766 3 6
19766 18 1
19766 34 14
19767 3 1
19767 10 1
19767 21 1
19767 24 1
19767 29 1
19767 34 1
19768 7 1
19769 3 1
19769 18 1
19769 29 1
19770 4 4
19770 5 32
19770 8 1
19770 38 31
19771 18 1
19771 24 2
19772 7 11
19772 8 8
19772 21 4
19772 22 5
19772 38 2
19773 21 1
19774 38 2
19775 24 1
19776 34 2
19777 12 7
19777 14 4
19778 19 1
19778 31 1
19778 34 1
19779 21 1
19780 8 1
19781 3 1
19782 18 1
19783 2 43
19783 3 48
19783 18 2
19783 34 85
19784 29 4
19785 14 1
19785 22 2
19786 38 1
19787 29 3
19788 18 1
19789 34 1
19790 5 1
19791 2 1
19791 21 1
19792 3 1
19792 4 1
19792 5 1
19792 17 1
19792 26 1
19792 34 1
19793 34 1
19794 9 1
19794 10 3
19794 11 3
19795 15 1
19795 18 1
19795 19 1
19795 20 1
19796 29 3
19796 34 1
19796 38 1
19797 12 1
19797 29 12
19797 30 1
19798 2 3
19798 3 9
19798 5 2
19798 11 2
19798 15 1
19798 21 1
19798 24 1
19798 29 1
19798 31 1
19798 34 2
19798 38 1
19799 3 1
19800 9 1
19801 11 1
19802 18 1
19802 29 6
19803 9 1
19803 12 1
19804 29 1
19805 29 1
19806 11 1
19807 31 2
19808 34 1
19809 2 1
19810 31 15
19811 4 3
19811 5 6
19811 38 4
19812 34 1
19813 3 3
19813 22 1
19813 24 2
19813 31 1
19814 2 1
19815 29 1
19816 18 23
19816 19 33
19816 20 11
19817 5 1
19817 21 1
19818 10 1
19819 3 1
19820 5 1
19821 22 1
19822 31 1
19823 24 1
19823 26 1
19823 31 10
19824 5 1
19824 24 1
19824 34 1
19825 34 1
19826 29 8
19826 30 3
19826 38 1
19827 8 1
19827 10 1
19827 24 1
19828 24 25
19829 5 4
19829 38 3
19830 10 1
19830 12 13
19830 18 12
19830 19 12
19830 20 1
19830 38 1
19831 7 5
19831 8 24
19832 29 1
19833 34 1
19834 4 1
19835 18 3
19835 19 4
19836 26 8
19837 2 1
19837 29 1
19838 5 1
19838 12 10
19838 13 1
19838 14 10
19839 26 1
19840 29 2
19841 2 1
19841 20 1
19842 29 1
19843 29 7
19844 22 1
19845 23 1
19845 24 7
19846 26 9
19846 31 10
19847 3 1
19847 31 17
19848 2 1
19849 2 1
19849 31 1
19849 38 1
19850 34 1
19851 29 1
19851 30 1
19852 3 1
19853 31 1
19854 38 1
19855 18 2
19855 19 4
19856 34 1
19857 34 1
19858 19 1
19858 24 8
19859 2 1
19859 17 1
19859 18 1
19859 19 1
19859 34 2
19859 38 1
19860 3 1
19861 34 1
19862 19 1
19863 38 1
19864 34 1
19865 5 1
19865 38 1
19866 3 1
19866 24 3
19866 29 1
19866 31 1
19867 24 17
19868 4 1
19868 12 1
19868 29 8
19869 22 1
19870 7 1
19870 31 1
19871 2 1
19871 12 2
19872 34 1
19873 10 1
19874 2 1
19875 21 6
19875 22 2
19876 9 9
19876 10 15
19876 11 10
19876 21 1
19877 34 1
19878 5 1
19879 3 1
19879 19 1
19879 20 1
19879 21 1
19879 24 1
19879 38 1
19880 21 9
19880 22 5
19881 2 1
19881 3 1
19881 10 1
19881 31 1
19882 34 1
19883 24 4
19884 5 1
19885 12 1
19886 24 1
19887 23 1
19887 24 18
19888 18 23
19888 19 13
19888 20 10
19888 21 7
19888 22 2
19889 19 1
19890 34 1
19891 34 1
19892 26 1
19893 10 1
19893 11 3
19893 24 1
19894 21 1
19895 18 13
19895 19 10
19895 20 1
19895 24 2
19895 34 1
19896 2 1
19896 18 1
19896 28 1
19897 3 1
19898 29 9
19899 7 1
19899 8 1
19899 34 1
19900 15 6
19900 16 3
19900 17 4
19900 31 1
19901 3 1
19902 26 2
19902 28 1
19902 29 8
19902 30 3
19903 5 1
19903 19 1
19904 2 1
19904 24 7
19905 5 3
19905 14 1
19905 19 1
19905 38 1
19906 15 4
19906 16 3
19906 17 3
19907 3 2
19907 5 1
19907 9 1
19907 12 1
19907 14 1
19907 18 1
19907 22 2
19907 24 1
19907 26 1
19907 29 1
19907 31 1
19907 38 1
19908 2 2
19908 3 1
19908 5 2
19908 10 1
19908 12 1
19908 19 2
19908 20 1
19908 21 1
19908 29 1
19908 34 2
19908 38 1
19909 5 1
19910 10 1
19911 4 6
19911 5 23
19911 38 31
19912 24 1
19913 12 1
19914 7 1
19914 24 11
19914 34 1
19915 24 1
19916 1 1
19916 2 2
19916 3 1
19916 34 4
19916 38 1
19917 18 3
19917 19 4
19917 20 1
19917 38 1
19918 12 4
19918 14 3
19919 24 18
19920 34 1
19921 18 1
19922 3 1
19923 4 10
19923 5 39
19923 16 1
19923 21 1
19923 31 1
19923 38 32
19924 5 1
19925 1 1
19925 2 12
19925 3 19
19925 24 3
19925 31 1
19925 34 17
19926 29 1
19927 17 1
19928 12 14
19928 13 1
19928 14 8
19929 22 1
19930 24 1
19931 29 22
19931 30 3
19932 4 1
19933 11 1
19934 3 1
19935 3 1
19935 5 1
19935 12 1
19935 18 1
19935 19 1
19935 29 2
19936 12 2
19936 38 1
19937 21 5
19937 22 3
19938 24 1
19939 1 2
19939 2 13
19939 3 12
19939 34 22
19940 24 9
19941 7 1
19942 31 1
19943 24 1
19944 31 1
19945 12 12
19945 14 6
19945 34 1
19946 2 5
19946 3 5
19946 34 7
19947 29 4
19948 20 1
19948 34 1
19949 23 1
19949 24 15
19950 19 1
19950 38 1
19951 3 1
19951 34 1
19952 2 1
19953 2 1
19953 34 1
19954 24 1
19955 3 1
19956 1 1
19956 2 9
19956 3 48
19956 34 53
19957 8 1
19958 18 1
19958 20 1
19959 15 18
19959 17 11
19960 21 1
19961 7 16
19961 8 36
19962 18 21
19962 19 11
19962 20 5
19962 22 1
19963 21 1
19964 7 7
19964 8 8
19965 24 13
19966 3 1
19967 8 1
19967 10 1
19967 11 6
19967 12 10
19967 14 6
19967 18 1
19967 26 1
19968 24 1
19969 15 12
19969 16 13
19969 17 16
19970 31 21
19971 29 6
19971 30 2
19972 15 36
19972 16 23
19972 17 22
19973 5 1
19973 11 1
19974 10 1
19975 11 2
19975 12 4
19975 14 2
19975 17 1
19976 22 1
19977 30 1
19978 21 1
19978 38 1
19979 11 1
19980 2 1
19981 3 1
19981 12 1
19982 5 2
19982 7 5
19982 8 2
19982 38 3
19983 18 8
19983 19 7
19983 20 2
19984 3 1
19984 14 1
19984 23 1
19984 24 12
19985 3 1
19986 24 1
19987 5 1
19987 19 1
19987 20 1
19988 3 1
19988 34 1
19989 7 1
19989 8 1
19989 16 1
19989 18 1
19990 3 1
19991 24 9
19992 2 6
19992 3 2
19992 10 1
19992 29 1
19992 34 4
19993 5 1
19993 29 7
19993 30 1
19994 3 1
19994 7 1
19994 22 1
19994 29 1
19994 34 2
19994 38 1
19995 21 1
19995 24 1
19995 29 1
19995 34 1
19996 7 2
19996 8 9
19996 14 1
19997 24 16
19998 29 1
19999 38 1
20000 24 2
20001 3 1
20002 14 1
20003 1 1
20003 2 3
20003 3 3
20003 34 7
20004 1 1
20004 2 20
20004 3 44
20004 24 1
20004 34 61
20005 2 1
20005 28 4
20006 29 1
20007 18 1
20008 19 1
20009 9 3
20009 10 3
20010 12 1
20010 19 1
20011 22 1
20012 22 1
20012 34 1
20013 2 12
20013 3 24
20013 34 14
20014 2 16
20014 3 38
20014 8 1
20014 12 39
20014 13 1
20014 14 21
20014 34 55
20014 38 1
20015 23 1
20015 24 23
20016 21 4
20016 22 4
20017 21 22
20017 22 18
20018 21 1
20019 7 1
20020 5 1
20021 31 1
20021 34 1
20022 21 1
20023 20 1
20024 18 25
20024 19 36
20024 20 20
20025 34 1
20026 31 8
20027 3 1
20028 38 1
20029 20 1
20030 12 1
20031 34 1
20032 12 3
20033 18 1
20034 1 1
20034 2 11
20034 3 10
20034 22 1
20034 24 5
20034 34 8
20034 38 1
20035 3 1
20035 29 5
20035 30 2
20036 3 1
20036 12 1
20036 15 1
20037 26 4
20038 9 1
20038 12 21
20038 13 1
20038 14 5
20039 21 1
20040 2 1
20040 22 1
20041 24 16
20041 34 1
20042 24 3
20043 2 1
20044 30 1
20045 17 1
20046 38 1
20047 9 1
20048 5 1
20048 8 1
20049 34 2
20050 22 1
20051 9 1
20052 18 1
20053 34 1
20054 4 2
20054 5 5
20054 24 1
20054 38 2
20055 5 1
20056 2 2
20057 26 1
20058 12 1
20059 19 2
20059 38 1
20060 3 1
20060 31 17
20061 21 12
20061 22 5
20062 5 1
20062 26 1
20063 29 1
20064 19 1
20065 3 1
20065 4 3
20065 5 12
20065 38 9
20066 4 16
20066 5 38
20066 34 1
20066 38 38
20067 3 1
20067 5 1
20068 29 1
20068 34 1
20069 17 1
20070 4 1
20070 5 5
20070 38 5
20071 4 9
20071 5 41
20071 38 41
20072 18 1
20073 3 3
20073 14 1
20073 16 1
20073 19 1
20073 22 1
20073 34 2
20074 21 14
20074 22 13
20075 14 1
20076 9 2
20076 34 1
20077 24 1
20077 28 2
20077 31 1
20078 12 36
20078 14 21
20079 18 3
20079 19 1
20079 20 1
20080 34 1
20081 29 1
20082 29 1
20083 29 1
20084 18 1
20085 38 1
20086 9 3
20086 10 2
20086 11 3
20087 29 14
20087 30 2
20088 4 1
20088 5 1
20088 10 1
20088 15 1
20088 17 1
20088 18 2
20088 20 1
20088 29 1
20089 34 1
20090 28 1
20090 38 1
20091 23 2
20091 24 6
20092 7 1
20093 29 28
20093 30 3
20094 34 1
20095 31 1
20096 2 1
20096 3 2
20096 38 2
20097 1 1
20097 2 17
20097 3 21
20097 34 23
20098 12 2
20098 14 1
20099 24 1
20099 29 2
20099 31 5
20100 11 1
20100 29 9
20101 1 2
20101 2 12
20101 3 22
20101 19 1
20101 34 32
20102 38 1
20103 2 1
20104 29 1
20106 18 1
20107 8 1
20108 3 1
20109 20 1
20110 12 1
20111 24 2
20111 34 1
20112 14 1
20113 9 1
20113 12 4
20113 14 3
20113 19 1
20114 4 7
20114 5 34
20114 38 44
20115 2 1
20116 24 1
20117 1 1
20117 2 23
20117 3 44
20117 34 53
20118 7 16
20118 8 18
20119 24 1
20120 38 1
20121 15 12
20121 16 14
20121 17 7
20121 24 1
20122 2 1
20123 4 7
20123 5 15
20123 38 15
20124 34 1
20125 29 3
20125 38 1
20126 19 1
20127 19 1
20128 1 3
20128 2 16
20128 3 24
20128 34 31
20129 24 1
20130 4 5
20130 5 13
20130 38 11
20131 9 1
20132 10 1
20132 19 1
20132 26 1
20133 31 2
20134 24 1
20135 5 1
20136 2 2
20136 8 2
20136 12 1
20136 21 3
20136 22 1
20136 31 1
20137 4 2
20137 5 18
20137 38 24
20138 38 1
20139 29 1
20140 9 1
20140 12 1
20141 11 1
20141 19 1
20142 19 1
20143 5 1
20144 3 1
20144 12 1
20145 19 1
20146 2 1
20147 2 1
20147 3 4
20147 4 1
20147 19 1
20147 34 5
20148 24 1
20148 38 1
20149 38 1
20150 22 1
20151 17 1
20151 31 11
20152 34 1
20153 17 1
20154 2 1
20155 4 3
20155 5 31
20155 9 1
20155 38 31
20156 34 1
20157 21 2
20158 12 1
20159 10 1
20160 19 9
20161 1 1
20161 2 19
20161 3 41
20161 34 50
20162 29 8
20163 17 2
20163 31 1
20164 29 18
20164 30 1
20165 3 1
20166 4 1
20167 5 1
20167 18 1
20167 28 1
20167 34 1
20167 38 1
20168 3 1
20169 2 2
20169 3 1
20169 19 1
20169 21 1
20169 29 1
20169 31 1
20170 34 1
20171 12 1
20172 29 1
20173 24 5
20174 22 1
20174 24 3
20174 31 12
20175 26 1
20175 29 1
20176 18 1
20177 18 1
20177 19 1
20178 9 1
20179 4 1
20179 31 9
20180 24 12
20181 31 3
20181 33 1
20182 2 1
20183 21 23
20183 22 13
20184 21 1
20184 24 1
20185 3 1
20185 12 10
20185 14 1
20185 19 1
20185 24 2
20186 3 1
20187 31 1
20188 24 1
20188 31 1
20189 29 1
20190 19 1
20190 20 1
20191 29 4
20192 19 2
20193 2 1
20194 21 11
20194 22 4
20195 13 1
20196 24 16
20197 29 1
20198 2 1
20198 24 4
20199 21 3
20199 22 1
20200 34 1
20201 5 4
20201 29 1
20201 38 4
20202 16 1
20203 24 3
20204 5 1
20204 29 1
20205 38 1
20206 38 1
20207 11 1
20208 19 1
20209 3 2
20209 38 1
20210 7 1
20211 29 2
20212 29 14
20212 30 1
20213 29 5
20213 30 1
20214 5 1
20214 12 1
20214 24 1
20214 34 1
20214 38 2
20215 21 1
20216 24 1
20217 15 1
20218 2 1
20218 3 1
20218 12 25
20218 14 10
20219 1 1
20219 2 8
20219 3 10
20219 24 1
20219 34 9
20220 4 2
20220 5 14
20220 19 1
20220 38 20
20221 21 1
20222 29 1
20223 15 2
20223 16 1
20224 5 4
20224 7 9
20224 8 9
20224 38 2
20225 3 1
20225 8 1
20225 29 38
20226 3 1
20226 15 1
20227 21 1
20228 31 2
20228 38 1
20229 38 1
20230 24 1
20231 3 1
20231 24 12
20232 14 1
20232 29 7
20233 29 1
20234 29 10
20234 30 1
20235 7 2
20235 8 4
20235 34 1
20236 19 1
20236 24 7
20237 29 2
20237 38 1
20238 2 6
20238 3 12
20238 29 1
20238 34 18
20239 3 1
20240 18 5
20240 19 11
20240 20 1
20241 5 1
20242 21 15
20242 22 12
20243 8 1
20243 19 1
20243 31 11
20243 34 1
20244 15 1
20245 3 1
20246 7 1
20246 8 3
20247 3 1
20247 15 4
20247 16 4
20247 17 6
20247 19 1
20248 10 1
20248 14 1
20248 21 1
20248 29 1
20248 34 3
20249 24 14
20250 8 1
20251 3 1
20251 31 1
20252 5 2
20252 8 1
20252 15 1
20252 16 1
20252 19 1
20253 2 1
20254 2 11
20254 3 23
20254 34 33
20255 26 1
20256 10 1
20256 18 4
20256 19 13
20256 20 3
20256 24 1
20256 31 1
20257 3 1
20258 8 1
20259 25 1
20259 26 4
20259 28 1
20259 29 1
20259 30 1
20260 2 2
20260 3 2
20260 18 1
20260 24 1
20260 34 3
20261 2 1
20261 12 2
20262 3 1
20263 18 5
20263 19 12
20263 20 4
20263 29 1
20264 3 1
20264 5 1
20264 31 1
20264 38 1
20265 34 1
20266 9 3
20266 10 2
20266 11 3
20267 22 1
20268 18 9
20268 19 7
20268 20 3
20269 2 1
20269 24 9
20270 11 1
20270 19 1
20271 12 31
20271 13 2
20271 14 14
20271 19 1
20271 34 1
20272 15 1
20273 14 1
20274 19 1
20275 2 3
20275 3 15
20275 34 13
20276 31 1
20277 3 1
20277 22 1
20278 18 1
20279 38 1
20280 38 1
20281 21 17
20281 22 13
20282 2 1
20283 19 1
20284 3 1
20284 14 1
20285 3 2
20285 4 1
20285 5 1
20285 12 3
20285 19 3
20285 20 1
20285 34 2
20286 24 1
20287 34 1
20288 29 6
20289 3 1
20290 2 1
20290 3 1
20290 8 1
20290 9 1
20290 31 1
20291 24 15
20292 38 1
20293 21 19
20293 22 9
20294 1 1
20294 4 1
20295 15 1
20296 18 1
20296 29 3
20297 34 1
20298 34 1
20299 17 1
20299 22 1
20300 20 1
20301 17 1
20302 34 1
20303 2 1
20303 29 1
20303 34 1
20304 24 21
20305 14 1
20305 28 3
20305 34 1
20306 2 1
20306 31 6
20307 25 1
20307 26 8
20307 38 1
20308 34 1
20309 12 15
20309 14 6
20309 18 28
20309 19 35
20309 20 16
20309 29 1
20309 34 1
20310 22 1
20311 26 5
20312 3 2
20312 8 1
20312 18 2
20312 31 2
20312 34 3
20312 38 2
20313 12 3
20313 38 1
20314 2 7
20314 3 10
20314 34 18
20315 5 1
20316 14 1
20316 24 1
20317 29 6
20318 29 1
20319 9 4
20319 10 9
20319 11 11
20320 38 1
20321 21 1
20321 34 1
20322 5 1
20323 4 1
20324 34 1
20325 4 3
20325 5 30
20325 38 28
20326 14 1
20327 31 8
20328 12 1
20329 29 13
20330 10 3
20330 34 1
20331 3 1
20331 12 7
20331 14 5
20332 15 9
20332 16 5
20332 17 6
20332 21 27
20332 22 31
20333 12 20
20333 14 10
20334 29 1
20335 18 1
20335 19 1
20335 20 1
20336 29 14
20336 30 2
20336 34 1
20337 29 1
20338 26 3
20339 2 1
20339 17 1
20340 31 1
20341 4 5
20341 5 22
20341 17 1
20341 38 35
20342 23 1
20343 17 1
20344 19 1
20345 1 2
20345 2 7
20345 3 25
20345 34 15
20346 8 1
20347 4 6
20347 5 24
20347 38 22
20348 29 1
20349 12 13
20349 13 1
20349 14 8
20350 4 1
20351 8 1
20352 2 1
20353 7 2
20353 8 6
20353 38 1
20354 5 2
20354 38 2
20355 18 23
20355 19 29
20355 20 13
20356 4 2
20356 5 2
20356 34 1
20356 38 3
20357 15 1
20358 38 1
20359 34 1
20360 2 1
20361 5 1
20362 4 3
20362 5 6
20362 38 15
20363 3 1
20363 18 1
20364 10 1
20364 18 1
20364 19 1
20365 5 1
20366 34 1
20367 16 1
20367 17 1
20368 11 1
20369 2 1
20369 3 3
20369 19 1
20369 34 7
20370 31 1
20371 10 1
20372 2 1
20372 19 1
20373 38 1
20374 9 1
20375 10 1
20376 10 1
20376 11 1
20377 3 1
20378 22 1
20379 29 2
20380 18 1
20381 34 1
20382 28 1
20382 38 1
20383 2 2
20383 3 1
20383 4 1
20383 8 2
20383 18 1
20383 19 1
20383 20 1
20383 21 1
20383 28 1
20383 29 1
20383 34 3
20384 3 1
20384 10 1
20384 21 1
20384 29 1
20385 19 1
20385 24 1
20385 34 1
20386 18 1
20387 9 1
20387 10 2
20387 11 1
20387 19 1
20387 24 17
20387 30 1
20388 19 1
20388 38 1
20389 15 4
20389 16 9
20389 17 9
20389 29 1
20390 4 2
20390 5 6
20390 38 5
20391 38 1
20392 24 1
20392 31 1
20393 2 1
20394 23 2
20394 24 7
20395 3 1
20395 29 4
20396 28 1
20396 38 1
20397 18 1
20398 24 2
20399 22 1
20400 34 1
20401 2 1
20401 3 1
20401 8 1
20401 12 1
20401 14 3
20401 17 1
20401 19 2
20401 21 1
20401 22 1
20401 29 2
20401 34 3
20401 38 2
20402 4 2
20402 5 11
20402 38 23
20403 38 1
20404 12 3
20404 14 2
20404 38 1
20405 24 1
20405 26 1
20406 21 8
20406 22 2
20407 34 1
20408 5 1
20409 19 2
20410 15 1
20411 5 1
20412 34 1
20413 4 14
20413 5 46
20413 38 68
20414 38 1
20415 24 2
20416 3 1
20416 12 1
20416 19 1
20417 34 1
20418 24 2
20419 2 1
20419 7 1
20420 28 2
20421 4 1
20421 12 1
20421 19 1
20421 38 1
20422 18 1
20423 3 1
20423 18 1
20424 7 15
20424 8 18
20424 29 1
20425 2 6
20425 3 7
20425 24 2
20425 26 3
20425 34 6
20425 38 1
20426 3 1
20427 3 1
20427 4 2
20427 5 13
20427 18 1
20427 19 1
20427 22 1
20427 38 5
20428 3 1
20429 2 2
20429 3 2
20429 34 1
20430 24 12
20431 24 1
20432 2 20
20432 3 12
20432 25 1
20432 29 1
20432 34 35
20433 29 2
20433 30 1
20433 31 1
20434 2 1
20435 20 1
20436 18 1
20437 24 1
20438 21 1
20438 24 1
20439 21 1
20440 12 1
20440 19 1
20440 21 4
20440 22 3
20440 34 1
20441 31 1
20442 1 2
20442 2 20
20442 3 51
20442 34 47
20443 9 3
20443 10 7
20444 31 6
20445 4 1
20445 5 2
20445 38 2
20446 4 14
20446 5 31
20446 24 1
20446 38 50
20447 12 3
20447 14 1
20447 21 1
20448 7 2
20448 8 6
20448 20 1
20448 31 1
20449 3 1
20449 4 1
20449 5 19
20449 15 2
20449 16 3
20449 38 29
20450 15 14
20450 16 10
20450 17 11
20450 21 12
20450 22 5
20450 29 1
20451 5 2
20452 7 8
20452 8 10
20453 18 3
20453 19 10
20453 22 1
20453 26 1
20454 17 1
20455 24 3
20456 38 1
20457 34 1
20458 34 1
20459 2 1
20459 34 2
20460 4 5
20460 5 11
20460 31 1
20460 38 11
20461 18 8
20461 19 10
20461 20 5
20462 12 3
20462 14 1
20462 34 1
20463 9 1
20463 10 2
20463 11 4
20463 14 1
20464 19 1
20465 38 1
20466 38 1
20467 3 1
20467 24 1
20468 2 8
20468 3 15
20468 28 4
20468 34 35
20468 38 1
20469 3 1
20469 7 4
20469 8 11
20469 18 8
20469 19 6
20469 20 3
20470 10 1
20470 11 4
20470 12 1
20471 8 1
20471 18 1
20471 31 22
20472 3 1
20473 3 1
20474 23 1
20475 3 1
20476 2 1
20476 3 3
20476 34 4
20477 20 1
20478 3 1
20478 7 6
20478 8 9
20478 21 7
20478 22 7
20479 38 1
20480 18 1
20480 34 1
20481 11 3
20481 12 3
20482 19 1
20483 38 1
20484 5 1
20484 10 1
20485 3 2
20485 5 1
20485 7 1
20485 10 1
20485 11 1
20485 15 1
20485 16 1
20485 18 1
20485 29 3
20485 34 3
20485 38 1
20486 38 1
20487 2 6
20487 3 13
20487 34 15
20488 4 6
20488 5 19
20488 38 28
20489 29 5
20490 29 13
20490 30 1
20491 5 1
20492 24 4
20493 9 1
20493 10 4
20493 11 3
20494 2 1
20494 38 1
20495 18 11
20495 19 9
20495 20 9
20495 22 1
20496 5 1
20497 24 4
20498 5 1
20499 3 1
20500 7 1
20501 4 1
20501 19 1
20502 21 8
20502 22 8
20503 29 20
20504 4 1
20504 5 10
20504 38 8
20505 29 1
20505 34 1
20506 5 1
20507 38 1
20508 21 2
20508 34 1
20508 38 1
20509 34 1
20510 3 1
20510 5 1
20510 12 1
20510 14 1
20510 18 1
20510 19 1
20510 21 1
20510 22 1
20510 24 1
20510 29 1
20510 34 1
20510 38 1
20511 2 2
20511 3 10
20511 17 1
20511 34 6
20511 38 1
20512 38 1
20513 7 8
20513 8 7
20514 3 1
20515 24 1
20515 31 1
20516 24 1
20517 8 1
20518 2 1
20518 3 1
20518 19 1
20518 26 1
20518 29 1
20518 34 1
20519 4 1
20519 22 1
20520 3 1
20520 16 1
20520 18 1
20520 24 2
20520 29 1
20520 34 3
20521 3 1
20521 16 1
20521 19 1
20521 21 1
20521 22 1
20521 34 1
20521 38 3
20522 19 1
20523 9 6
20523 10 14
20523 11 14
20524 12 1
20524 38 1
20525 24 1
20525 26 6
20525 34 1
20526 2 1
20526 3 2
20526 25 1
20526 26 7
20526 29 1
20526 34 3
20527 38 1
20528 2 1
20528 4 1
20529 21 1
20530 26 2
20530 31 3
20531 1 1
20531 8 1
20531 9 4
20531 10 13
20531 11 4
20531 12 1
20532 2 1
20532 19 1
20533 29 1
20534 10 1
20534 24 1
20534 29 2
20535 4 1
20536 26 8
20537 29 1
20538 29 1
20539 3 1
20540 1 1
20540 3 1
20540 5 1
20540 9 1
20540 10 1
20540 15 1
20540 18 2
20540 21 2
20540 24 1
20540 29 1
20540 31 1
20540 34 2
20541 29 1
20542 18 1
20542 31 10
20542 34 1
20543 29 1
20544 18 1
20545 11 1
20546 24 5
20547 2 1
20548 34 1
20549 28 8
20550 24 12
20551 24 15
20552 3 1
20552 22 1
20552 24 1
20552 29 1
20552 34 1
20553 3 1
20553 9 23
20553 11 22
20554 24 1
20555 2 1
20555 5 1
20556 5 1
20557 18 1
20557 24 1
20558 29 11
20558 30 1
20559 5 1
20559 18 6
20559 19 11
20559 20 4
20560 3 1
20560 9 1
20560 20 1
20560 29 2
20560 31 1
20560 38 2
20561 4 6
20561 5 25
20561 38 32
20562 38 1
20563 18 1
20563 19 3
20563 20 1
20563 34 1
20564 38 1
20565 12 1
20565 29 18
20565 30 1
20566 24 1
20567 3 1
20568 2 1
20568 3 1
20568 4 1
20568 18 1
20568 20 1
20568 23 1
20568 34 5
20569 11 1
20570 26 7
20571 30 1
20572 12 18
20572 13 2
20572 14 8
20573 18 11
20573 19 12
20573 20 1
20574 26 1
20575 22 1
20576 18 1
20577 15 1
20578 15 1
20579 28 2
20580 3 2
20580 38 1
20581 1 1
20581 2 10
20581 3 21
20581 31 1
20581 34 35
20582 4 1
20582 5 4
20582 38 2
20583 4 1
20584 29 1
20585 28 1
20586 18 1
20587 2 1
20587 7 1
20587 19 2
20587 21 1
20587 22 1
20587 24 2
20587 29 3
20587 34 1
20588 12 1
20589 21 2
20589 22 1
20590 2 1
20591 21 1
20592 19 1
20593 26 4
20594 3 3
20594 18 1
20594 21 1
20594 34 1
20594 38 1
20595 2 1
20595 12 1
20595 14 1
20595 18 1
20595 21 1
20595 38 1
20596 11 1
20597 4 1
20598 2 3
20598 3 3
20598 29 1
20598 34 6
20599 15 3
20599 16 1
20599 17 2
20600 12 1
20601 2 3
20601 3 1
20601 10 1
20601 34 3
20602 8 5
20602 12 1
20602 17 1
20603 21 1
20603 29 1
20603 38 1
20604 12 5
20604 14 8
20605 29 22
20605 30 2
20606 29 2
20607 3 2
20607 5 1
20607 8 1
20607 9 1
20607 11 1
20607 12 1
20607 21 1
20607 24 1
20607 25 1
20607 34 1
20608 38 1
20609 24 1
20610 19 1
20611 3 1
20612 2 9
20612 3 25
20612 34 36
20613 24 1
20613 29 1
20613 34 1
20614 24 1
20615 2 1
20615 3 2
20615 4 1
20615 5 2
20615 9 1
20615 11 2
20615 19 2
20615 22 1
20615 24 1
20615 31 1
20615 34 4
20615 38 2
20616 2 1
20617 3 1
20617 4 3
20617 5 23
20617 8 1
20617 38 26
20618 10 1
20619 8 3
20620 18 1
20621 3 1
20622 21 12
20622 22 8
20623 34 1
20624 31 1
20625 21 1
20626 2 5
20626 3 20
20626 31 4
20626 34 20
20627 34 1
20628 19 1
20628 29 15
20628 30 2
20628 34 1
20629 10 1
20630 21 1
20631 14 1
20632 18 20
20632 19 24
20632 20 14
20633 2 3
20633 3 8
20633 34 8
20634 4 1
20634 5 8
20634 38 14
20635 34 1
20636 17 1
20636 29 6
20636 30 1
20637 20 1
20638 21 1
20639 3 1
20640 2 1
20640 15 1
20641 1 1
20642 12 1
20643 30 1
20644 2 1
20644 24 1
20645 24 1
20646 3 1
20647 4 9
20647 5 20
20647 38 24
20648 31 8
20649 5 1
20650 2 1
20650 12 1
20651 2 18
20651 3 27
20651 31 1
20651 34 34
20652 12 2
20653 24 1
20654 38 1
20655 7 1
20656 31 20
20657 38 1
20658 31 1
20659 2 27
20659 3 39
20659 34 55
20660 19 1
20660 21 7
20660 22 1
20661 34 1
20662 34 1
20663 24 1
20664 21 8
20664 22 8
20665 3 1
20665 5 1
20665 7 1
20665 17 1
20665 18 1
20665 24 1
20665 29 1
20665 34 1
20666 3 5
20666 34 6
20667 12 1
20667 24 1
20667 29 1
20667 31 18
20667 34 1
20668 2 17
20668 3 53
20668 34 51
20669 8 1
20669 12 1
20670 3 1
20671 21 11
20671 31 16
20672 2 4
20672 3 15
20672 34 17
20673 18 1
20674 3 1
20675 34 1
20676 8 1
20677 27 1
20677 28 5
20678 24 1
20679 28 1
20680 5 1
20680 38 2
20681 1 1
20681 3 2
20681 5 1
20681 12 1
20681 20 1
20681 31 1
20681 34 1
20681 38 2
20682 9 2
20682 10 2
20682 11 1
20683 29 1
20684 24 1
20685 26 1
20686 5 4
20686 38 4
20687 31 11
20688 5 1
20688 7 1
20688 8 1
20688 12 1
20688 21 1
20688 22 2
20688 30 1
20688 34 2
20688 38 2
20689 14 1
20689 19 2
20689 22 1
20689 29 1
20689 31 1
20689 34 1
20690 15 1
20691 3 1
20691 31 1
20692 29 6
20693 11 1
20693 38 1
20694 3 1
20695 4 2
20695 5 3
20695 38 3
20696 7 1
20696 10 1
20697 31 1
20698 10 1
20699 34 1
20700 18 1
20701 3 1
20702 3 1
20702 5 1
20702 34 1
20703 29 1
20704 22 1
20705 2 32
20705 3 18
20705 24 6
20705 34 27
20706 26 2
20707 23 1
20707 24 7
20708 18 3
20708 19 11
20708 20 2
20708 29 1
20709 5 1
20710 18 1
20711 2 4
20711 3 17
20711 34 31
20712 1 1
20712 2 31
20712 3 47
20712 19 1
20712 34 54
20713 4 1
20714 18 18
20714 19 18
20714 20 5
20715 5 1
20715 24 1
20716 29 1
20717 21 1
20718 31 8
20719 18 1
20720 20 1
20721 29 9
20722 7 5
20722 8 4
20723 4 1
20723 5 3
20723 23 1
20723 24 7
20723 38 6
20724 34 1
20725 24 1
20725 28 1
20725 31 1
20726 3 1
20726 7 3
20726 8 9
20726 10 1
20726 12 1
20726 20 1
20727 19 2
20727 21 25
20727 22 16
20728 2 1
20728 3 1
20728 4 2
20728 5 6
20728 20 1
20728 24 3
20728 29 2
20728 31 2
20728 38 4
20729 16 1
20730 14 1
20731 18 2
20731 19 3
20732 34 1
20733 1 1
20734 31 1
20735 18 1
20736 5 1
20736 28 2
20737 38 1
20738 4 2
20738 5 7
20738 38 9
20739 28 1
20740 7 9
20740 8 4
20740 19 1
20741 21 1
20741 23 1
20741 24 2
20742 18 29
20742 19 52
20742 20 16
20743 38 2
20744 18 1
20745 12 1
20745 24 2
20746 9 1
20747 3 1
20747 34 1
20748 18 1
20749 34 1
20750 31 1
20751 5 1
20751 15 1
20751 17 1
20751 22 1
20751 24 1
20751 28 1
20751 34 2
20752 3 2
20752 29 1
20752 34 2
20753 18 1
20754 3 1
20754 4 1
20754 5 2
20754 38 2
20755 3 1
20755 18 1
20755 24 4
20756 14 1
20757 5 7
20757 34 1
20757 38 13
20758 5 1
20759 4 1
20759 15 2
20759 20 1
20759 21 1
20759 22 1
20759 34 1
20760 3 1
20760 19 1
20760 20 1
20760 31 3
20761 38 1
20762 8 1
20763 1 2
20763 2 29
20763 3 31
20763 34 47
20764 12 2
20764 24 1
20764 34 1
20765 5 1
20766 5 1
20766 18 15
20766 19 24
20766 20 9
20766 21 1
20767 29 1
20767 34 1
20768 19 1
20769 18 11
20769 19 19
20769 20 13
20769 21 1
20770 3 1
20770 5 1
20770 19 1
20770 28 2
20770 29 1
20771 5 5
20771 18 1
20771 38 7
20772 4 4
20772 5 31
20772 34 1
20772 38 24
20773 9 7
20773 10 30
20773 11 17
20773 20 1
20774 14 1
20774 28 2
20774 29 2
20775 18 1
20776 24 1
20776 31 5
20777 34 1
20778 38 1
20779 26 3
20780 3 1
20781 7 5
20781 8 12
20782 29 9
20782 30 2
20783 20 1
20784 2 4
20784 3 15
20784 22 1
20784 34 21
20785 31 1
20786 22 1
20787 34 1
20788 24 1
20789 12 1
20789 18 5
20790 21 1
20790 29 27
20790 30 4
20791 5 1
20792 26 1
20793 24 1
20793 38 1
20794 29 4
20794 30 1
20795 31 1
20796 5 1
20797 1 1
20797 2 13
20797 3 13
20797 23 1
20797 26 4
20797 34 30
20798 11 1
20798 18 3
20798 19 1
20799 24 14
20800 38 1
20801 21 22
20801 22 15
20801 29 5
20801 34 1
20802 4 1
20803 18 1
20803 26 1
20804 7 1
20805 2 1
20806 38 1
20807 12 11
20807 14 8
20807 34 1
20808 38 1
20809 3 1
20809 9 4
20809 10 2
20809 11 6
20809 34 1
20810 19 1
20810 34 1
20811 5 2
20811 31 1
20811 38 4
20812 3 1
20813 10 1
20813 31 7
20814 29 1
20814 34 1
20815 10 1
20816 12 1
20816 21 4
20816 22 8
20817 24 1
20818 38 1
20819 29 2
20820 7 1
20820 8 3
20821 29 1
20822 2 1
20823 3 2
20823 4 1
20823 10 1
20823 12 1
20823 22 1
20823 24 3
20823 28 1
20823 31 1
20823 34 1
20823 38 1
20824 3 1
20825 3 1
20826 22 2
20827 2 5
20827 3 9
20827 26 4
20827 31 5
20827 34 16
20828 3 1
20828 5 1
20828 12 1
20828 16 1
20828 18 1
20828 19 4
20828 24 1
20828 26 1
20828 34 2
20829 24 5
20830 22 1
20831 5 1
20832 15 1
20832 31 4
20833 34 1
20834 2 3
20834 3 3
20834 4 4
20834 5 9
20834 34 2
20834 38 10
20835 5 1
20836 3 1
20836 5 1
20836 31 10
20837 19 1
20838 3 1
20839 29 1
20840 12 1
20841 3 1
20841 34 1
20842 18 2
20842 19 2
20842 20 2
20843 3 1
20843 29 1
20844 12 1
20845 14 1
20846 1 1
20846 2 11
20846 3 17
20846 22 1
20846 34 32
20847 18 1
20847 28 2
20847 34 1
20847 38 1
20848 18 1
20849 38 1
20850 29 18
20850 30 2
20851 28 1
20852 21 2
20852 22 2
20853 5 1
20853 28 2
20854 3 1
20855 7 2
20855 8 7
20855 22 1
20856 3 1
20856 26 1
20856 34 1
20857 3 1
20857 5 1
20857 24 8
20857 38 1
20858 5 1
20858 22 1
20858 38 1
20859 2 1
20860 2 4
20860 3 3
20860 29 2
20860 30 1
20860 34 9
20861 15 8
20861 16 10
20861 17 9
20862 34 1
20863 2 1
20863 5 1
20863 18 1
20863 19 2
20863 24 1
20863 26 1
20863 31 1
20863 34 1
20864 7 3
20864 8 4
20865 14 1
20866 34 1
20867 3 1
20868 5 1
20868 9 33
20868 10 57
20868 11 31
20868 12 1
20868 18 5
20868 19 11
20868 20 4
20869 3 1
20870 18 41
20870 19 36
20870 20 13
20871 2 1
20871 22 1
20871 31 15
20872 5 1
20872 29 14
20872 30 1
20873 4 1
20874 29 11
20874 30 1
20874 34 1
20875 4 1
20875 38 1
20876 31 7
20877 21 1
20878 21 15
20878 22 11
20879 2 1
20880 1 1
20880 2 23
20880 3 26
20880 34 21
20881 18 1
20882 8 1
20883 22 1
20884 9 5
20884 10 5
20884 11 4
20884 18 4
20884 19 8
20884 20 3
20885 34 1
20886 19 1
20887 38 2
20888 5 1
20889 2 5
20889 3 16
20889 34 13
20890 24 1
20890 34 1
20891 21 5
20892 29 7
20892 34 1
20893 26 1
20894 3 2
20895 2 2
20895 25 1
20896 11 1
20896 34 1
20897 28 2
20898 26 3
20899 1 1
20899 3 1
20899 5 2
20899 18 1
20899 34 1
20899 38 3
20900 29 14
20900 30 1
20901 18 4
20901 19 6
20902 3 2
20902 19 1
20902 22 1
20903 18 1
20904 29 1
20905 34 1
20906 2 10
20906 3 19
20906 29 6
20906 30 3
20906 34 28
20907 18 1
20908 3 1
20908 7 1
20908 8 10
20909 15 1
20909 29 1
20909 31 1
20910 3 2
20910 34 1
20911 24 9
20912 9 1
20912 10 1
20912 11 1
20913 2 1
20913 3 1
20913 16 1
20913 34 6
20913 38 1
20914 21 1
20915 21 1
20915 29 1
20916 2 1
20916 5 3
20916 11 1
20916 20 1
20916 21 1
20916 22 3
20916 24 1
20917 3 4
20917 4 2
20917 5 1
20917 17 1
20917 18 1
20917 19 1
20917 22 1
20917 31 1
20917 34 3
20918 10 1
20919 14 1
20919 28 4
20920 5 1
20921 23 1
20921 24 6
20922 31 1
20923 14 1
20924 3 1
20925 21 1
20926 34 1
20927 19 1
20928 5 1
20928 8 1
20928 10 1
20928 12 7
20928 13 1
20928 14 6
20929 3 1
20929 29 38
20929 30 4
20930 7 2
20930 8 6
20930 19 1
20931 3 3
20931 34 2
20932 11 1
20933 22 1
20933 29 17
20933 30 1
20934 26 1
20935 29 1
20936 20 1
20937 12 1
20937 28 1
20938 3 1
20938 28 1
20939 12 1
20939 18 1
20939 26 1
20940 34 1
20941 16 1
20941 19 1
20942 4 6
20942 5 8
20942 38 12
20943 10 1
20944 2 1
20944 3 1
20944 10 1
20944 18 1
20944 34 1
20945 2 4
20945 3 17
20945 17 1
20945 34 11
20946 7 1
20946 8 2
20947 8 1
20948 15 1
20948 21 1
20948 31 6
20949 24 4
20950 28 3
20951 34 1
20952 3 1
20953 15 6
20953 16 3
20953 17 8
20954 21 1
20955 15 5
20955 16 2
20956 2 1
20956 29 5
20956 30 1
20957 29 10
20957 30 2
20958 7 1
20959 2 4
20959 3 7
20959 11 1
20959 29 1
20959 34 9
20960 34 1
20961 30 1
20962 3 1
20963 21 1
20964 22 1
20965 12 1
20966 31 1
20967 23 1
20967 24 15
20968 34 1
20969 38 1
20970 2 1
20970 4 1
20970 5 3
20970 10 1
20970 19 1
20970 38 1
20971 21 2
20971 24 23
20972 24 13
20973 22 1
20973 31 1
20974 15 1
20975 4 4
20975 5 19
20975 38 12
20976 12 8
20976 14 4
20976 24 1
20977 7 1
20977 8 5
20978 34 1
20979 5 1
20980 15 1
20981 28 3
20982 31 11
20983 2 3
20983 3 4
20983 34 6
20984 5 2
20984 38 1
20985 24 1
20986 38 1
20987 3 1
20988 29 1
20989 21 1
20990 19 1
20990 22 1
20991 10 1
20992 24 3
20993 3 1
20993 10 1
20994 14 1
20995 5 2
20995 38 1
20996 9 1
20996 10 3
20996 11 2
20996 38 2
20997 3 1
20998 38 1
20999 34 2
20999 38 1
21000 28 1
21000 29 2
21001 19 1
21001 34 1
21002 3 1
21003 22 1
21004 5 2
21004 21 1
21004 38 1
21005 26 1
21006 29 1
21006 30 1
21007 24 1
21008 2 2
21008 3 4
21008 34 2
21009 19 1
21010 28 1
21011 2 1
21011 3 1
21011 11 1
21011 29 1
21011 34 1
21012 5 1
21012 19 1
21012 21 1
21012 34 1
21013 24 1
21014 3 2
21014 8 1
21014 11 1
21014 14 1
21014 19 1
21014 24 1
21014 34 2
21014 38 1
21015 10 1
21015 28 4
21016 38 1
21017 22 1
21017 29 5
21018 5 1
21018 10 1
21018 29 1
21018 31 1
21018 34 1
21019 3 1
21019 5 1
21019 18 1
21019 20 1
21019 25 1
21019 26 6
21019 29 6
21020 24 1
21021 4 3
21021 5 7
21021 38 5
21022 34 1
21023 3 2
21023 5 3
21023 8 1
21023 12 1
21023 14 1
21023 15 1
21023 19 1
21023 21 1
21023 24 1
21023 28 1
21023 29 1
21023 38 2
21024 21 1
21025 18 1
21026 29 1
21026 38 1
21027 19 1
21028 21 1
21029 5 1
21029 19 1
21030 21 6
21030 22 5
21031 18 1
21031 19 1
21031 25 3
21031 26 5
21032 5 1
21033 4 11
21033 5 22
21033 38 26
21034 14 1
21035 19 1
21035 31 2
21036 19 1
21037 5 1
21038 18 1
21038 22 1
21039 12 1
21040 19 1
21041 7 1
21042 24 8
21043 21 1
21044 29 1
21045 11 1
21045 18 1
21046 28 5
21046 29 1
21047 3 1
21047 5 1
21047 34 1
21048 21 1
21049 25 1
21049 26 5
21050 31 1
21051 2 1
21051 4 1
21051 5 5
21051 38 11
21053 9 1
21054 2 1
21055 34 1
21056 34 1
21057 4 1
21058 31 1
21059 5 1
21060 31 3
21061 31 4
21062 31 1
21063 18 1
21064 14 1
21064 20 1
21064 38 1
21065 24 1
21066 17 1
21067 28 1
21068 31 6
21069 2 2
21069 3 1
21069 5 1
21069 8 1
21069 10 1
21069 12 1
21069 15 1
21070 28 1
21072 29 1
21073 29 14
21073 30 1
21074 10 1
21075 24 7
21076 34 1
21077 21 1
21079 2 1
21080 18 2
21080 19 5
21080 20 1
21081 2 1
21082 4 2
21082 5 1
21082 9 2
21082 11 1
21082 38 1
21083 29 2
21083 30 1
21083 31 2
21084 19 1
21084 29 9
21085 18 4
21085 19 3
21085 20 2
21086 24 1
21086 28 1
21087 24 1
21088 18 1
21089 28 1
21090 8 1
21090 34 1
21091 34 1
21092 28 3
21093 7 1
21093 8 7
21094 4 2
21094 5 22
21094 34 1
21094 38 21
21095 16 1
21096 31 1
21097 2 1
21097 34 1
21098 34 1
21099 3 1
21099 4 4
21099 5 7
21099 38 9
21100 24 21
21100 34 1
21101 4 3
21101 5 20
21101 15 3
21101 16 2
21101 17 2
21101 38 17
21102 34 1
21103 21 1
21103 30 1
21103 31 10
21104 34 1
21105 11 1
21106 34 1
21107 19 1
21108 2 16
21108 3 17
21108 34 35
21109 26 2
21110 14 1
21111 14 1
21112 8 3
21112 34 1
21113 8 1
21113 21 1
21114 9 5
21114 10 5
21114 11 2
21115 12 16
21115 13 1
21115 14 10
21115 34 1
21116 29 1
21117 29 15
21117 30 1
21118 18 4
21118 19 4
21118 20 5
21119 12 1
21120 3 1
21120 4 1
21121 21 1
21122 5 1
21123 3 1
21124 28 3
21125 34 1
21126 4 1
21126 22 1
21127 5 1
21127 9 6
21127 10 14
21127 11 8
21128 3 1
21129 19 1
21130 26 1
21130 29 18
21130 30 2
21131 2 5
21131 3 1
21131 34 5
21132 28 4
21133 8 3
21134 18 22
21134 19 30
21134 20 5
21134 29 1
21135 4 4
21135 5 23
21135 24 7
21135 29 6
21135 34 1
21135 38 37
21136 3 1
21136 8 1
21137 7 5
21137 8 11
21137 9 1
21138 25 1
21138 26 2
21139 2 1
21140 4 1
21140 5 1
21140 29 4
21140 38 1
21141 31 7
21141 34 1
21142 29 2
21143 24 1
21144 11 1
21145 3 1
21146 24 7
21147 2 1
21147 3 7
21147 4 2
21147 5 1
21147 24 10
21147 34 6
21147 38 4
21148 4 1
21148 5 5
21148 31 1
21148 38 3
21149 38 1
21150 12 4
21150 18 1
21150 22 1
21151 29 1
21152 31 7
21152 33 1
21153 14 1
21154 29 1
21155 38 1
21156 24 6
21157 34 1
21158 5 1
21158 18 1
21159 18 17
21159 19 13
21159 20 12
21160 31 6
21161 3 1
21161 4 1
21161 5 1
21161 12 1
21161 14 1
21161 19 1
21161 20 1
21161 22 1
21161 24 1
21161 29 2
21161 34 4
21162 34 1
21163 28 1
21164 29 3
21164 30 2
21165 21 1
21167 5 1
21168 12 1
21169 5 1
21169 38 1
21170 21 1
21171 12 1
21172 12 18
21172 13 2
21172 14 10
21173 14 1
21174 8 1
21175 2 1
21175 5 1
21176 9 2
21176 10 4
21176 11 1
21177 18 33
21177 19 44
21177 20 11
21178 34 1
21179 1 1
21179 2 19
21179 3 28
21179 18 1
21179 25 1
21179 34 42
21180 3 1
21180 17 1
21180 18 4
21180 19 1
21180 28 1
21180 34 2
21180 38 1
21181 34 3
21182 34 1
21183 28 2
21184 10 1
21185 34 1
21186 3 1
21187 30 1
21188 24 8
21189 29 18
21190 24 1
21191 5 1
21191 28 1
21192 12 1
21192 29 1
21192 31 1
21193 28 4
21194 3 1
21194 24 2
21194 31 7
21194 34 1
21195 4 2
21195 5 11
21195 38 8
21196 2 4
21196 3 2
21196 34 5
21197 4 1
21197 24 1
21197 28 3
21198 18 1
21199 14 1
21200 29 1
21201 4 3
21201 5 29
21201 38 25
21202 2 1
21203 15 5
21203 16 5
21203 17 2
21204 21 1
21205 3 5
21205 34 2
21206 29 1
21207 4 2
21207 5 6
21207 29 1
21207 38 3
21208 38 1
21209 3 1
21210 2 1
21210 22 1
21210 29 3
21210 34 1
21211 19 1
21212 3 1
21212 4 1
21212 8 1
21212 10 1
21212 12 2
21212 24 1
21212 29 1
21212 31 1
21212 34 2
21212 38 1
21213 2 1
21213 24 1
21214 19 1
21215 24 18
21215 31 1
21216 3 1
21216 18 18
21216 19 18
21216 20 15
21217 1 1
21217 2 27
21217 3 63
21217 34 70
21218 3 1
21219 3 1
21219 5 1
21220 31 11
21221 34 1
21222 3 1
21222 4 8
21222 5 34
21222 38 58
21223 3 1
21224 18 13
21224 19 8
21224 20 5
21225 24 1
21225 34 1
21226 34 1
21227 31 1
21228 18 1
21229 10 1
21229 18 15
21229 19 19
21229 20 9
21230 4 1
21230 15 1
21231 19 3
21231 24 1
21232 21 1
21233 19 1
21233 29 9
21234 3 2
21234 34 1
21235 29 3
21236 18 1
21236 23 1
21236 24 15
21237 5 1
21238 18 1
21238 21 1
21238 22 1
21239 19 1
21240 22 1
21240 29 14
21240 30 1
21241 18 8
21241 19 9
21241 20 6
21241 21 1
21242 19 13
21242 20 2
21242 28 1
21243 10 1
21243 18 2
21243 21 1
21243 29 1
21244 24 9
21245 34 1
21246 31 2
21247 31 4
21248 3 7
21248 34 7
21249 10 1
21249 18 1
21249 38 1
21250 24 1
21251 18 38
21251 19 37
21251 20 11
21252 18 1
21252 20 1
21253 29 1
21254 3 1
21254 7 1
21254 8 1
21254 12 1
21254 22 1
21254 29 1
21255 3 1
21255 5 2
21255 12 2
21255 14 1
21255 18 1
21255 24 1
21255 29 1
21255 34 1
21255 38 1
21256 29 1
21256 34 1
21257 3 1
21257 24 3
21258 31 7
21259 4 2
21259 5 3
21259 38 8
21260 34 1
21261 8 1
21261 19 1
21262 15 1
21262 16 2
21262 17 2
21262 29 2
21263 5 6
21263 38 6
21264 5 1
21265 3 1
21266 38 1
21267 19 1
21267 21 2
21268 24 3
21269 24 1
21270 12 1
21270 14 2
21270 38 1
21271 23 1
21271 24 1
21272 29 10
21272 30 2
21273 18 1
21274 5 1
21274 19 1
21274 21 1
21275 3 1
21275 12 1
21276 24 1
21276 34 1
21277 7 1
21277 8 1
21278 1 2
21278 2 25
21278 3 33
21278 11 1
21278 24 10
21278 34 52
21279 25 1
21279 26 2
21280 2 5
21280 3 28
21280 34 25
21281 1 3
21281 2 33
21281 3 47
21281 34 52
21282 21 11
21282 22 12
21283 24 1
21284 18 31
21284 19 39
21284 20 18
21285 21 1
21286 18 14
21286 19 10
21286 20 5
21287 28 9
21288 24 6
21289 28 5
21289 34 1
21290 3 1
21291 17 1
21292 18 1
21293 31 3
21294 7 1
21294 16 1
21295 18 1
21295 29 13
21296 29 1
21297 21 1
21298 26 1
21299 1 1
21299 2 19
21299 3 30
21299 31 1
21299 34 42
21300 9 11
21300 10 13
21300 11 11
21301 19 1
21301 31 1
21302 34 1
21303 24 11
21304 31 1
21305 29 1
21306 18 1
21307 21 1
21307 26 1
21307 38 1
21308 9 2
21308 10 11
21308 11 8
21308 12 3
21308 18 4
21308 19 3
21308 20 1
21308 21 1
21309 5 1
21309 10 1
21309 16 1
21309 22 1
21309 28 1
21310 5 1
21311 29 5
21312 12 1
21313 38 1
21314 21 1
21315 9 2
21316 8 1
21316 21 1
21317 21 4
21317 22 2
21317 31 2
21318 2 1
21318 3 2
21319 2 4
21319 3 20
21319 14 1
21319 34 38
21320 14 1
21320 29 14
21321 18 1
21321 24 1
21322 8 1
21323 24 4
21324 2 1
21324 3 3
21324 34 1
21325 27 1
21325 28 3
21326 5 1
21326 31 7
21327 12 18
21327 13 1
21327 14 7
21328 5 1
21329 38 1
21330 12 2
21330 14 1
21331 26 1
21332 18 34
21332 19 20
21332 20 11
21333 34 1
21334 21 18
21334 22 6
21335 31 2
21336 2 2
21336 3 1
21336 5 2
21336 18 1
21336 19 1
21336 22 2
21336 29 1
21336 31 1
21337 38 1
21338 15 8
21338 16 6
21338 17 6
21338 19 1
21338 38 1
21339 4 2
21339 12 21
21339 14 20
21340 12 1
21341 5 1
21341 29 12
21341 30 2
21342 10 1
21342 18 46
21342 19 48
21342 20 8
21343 18 1
21344 10 3
21345 21 1
21345 22 5
21346 24 1
21347 12 1
21348 9 1
21348 31 1
21348 34 1
21349 29 1
21350 29 1
21350 31 5
21351 29 1
21352 29 1
21352 34 1
21353 29 1
21354 18 1
21355 29 7
21356 9 1
21357 5 1
21357 18 1
21357 28 2
21358 29 24
21359 22 1
21360 7 1
21360 29 1
21360 31 4
21361 18 3
21361 19 5
21361 20 2
21362 5 1
21362 18 6
21362 19 1
21362 20 1
21363 1 1
21363 2 5
21363 3 7
21363 34 7
21364 18 1
21364 19 2
21364 20 1
21365 3 1
21365 24 1
21366 1 1
21366 2 4
21366 3 8
21366 34 14
21367 24 1
21368 4 1
21368 5 5
21368 38 14
21369 3 1
21369 15 1
21369 16 2
21369 17 2
21369 22 1
21370 18 14
21370 19 16
21370 20 7
21371 5 1
21371 38 1
21372 21 1
21373 18 1
21374 5 1
21375 4 1
21375 5 5
21375 38 6
21376 4 10
21376 5 47
21376 38 73
21377 22 1
21378 24 1
21378 34 1
21379 2 1
21379 3 1
21379 24 9
21379 28 2
21380 3 1
21381 24 3
21382 31 14
21383 12 30
21383 13 3
21383 14 24
21384 9 1
21385 29 7
21385 30 2
21386 8 1
21386 29 1
21387 38 1
21388 31 13
21389 7 8
21389 8 19
21389 19 1
21390 9 1
21390 23 1
21390 24 16
21391 7 5
21391 8 19
21392 24 1
21393 11 1
21394 19 1
21395 8 1
21395 38 1
21396 12 6
21396 14 6
21396 24 1
21396 28 1
21397 12 1
21397 31 1
21398 8 1
21399 5 1
21399 12 34
21399 14 19
21400 19 1
21401 24 1
21402 29 1
21403 1 1
21403 2 6
21403 3 6
21403 31 1
21403 34 8
21404 7 3
21404 8 2
21404 12 1
21404 18 1
21405 10 1
21405 18 45
21405 19 32
21405 20 14
21406 18 26
21406 19 36
21406 20 8
21407 21 1
21407 22 1
21408 17 1
21409 22 1
21409 34 1
21410 9 1
21410 10 1
21411 3 1
21412 34 1
21413 11 1
21414 2 32
21414 3 48
21414 34 66
21415 24 1
21416 7 2
21416 8 10
21417 4 4
21417 5 30
21417 38 33
21418 15 1
21419 38 1
21420 34 1
21421 2 1
21421 24 1
21422 19 1
21423 30 1
21424 18 7
21424 19 4
21424 20 3
21425 14 1
21426 21 17
21426 22 12
21427 3 1
21427 21 27
21427 22 15
21427 31 1
21428 3 1
21428 24 14
21429 12 11
21429 13 1
21429 14 5
21430 29 1
21431 18 17
21431 19 16
21431 20 8
21432 15 1
21433 4 1
21433 5 1
21433 10 1
21433 12 1
21433 31 1
21434 9 8
21434 10 20
21434 11 16
21434 34 2
21435 1 1
21435 2 15
21435 3 17
21435 34 31
21436 28 1
21437 10 1
21438 21 21
21438 22 13
21439 21 1
21439 22 1
21439 31 1
21440 15 1
21440 29 6
21441 2 4
21441 7 2
21441 8 3
21441 34 1
21442 9 1
21443 24 1
21443 29 1
21444 19 1
21444 23 1
21444 24 4
21445 3 1
21445 19 1
21446 10 1
21447 3 1
21447 5 2
21447 11 1
21447 18 3
21447 19 1
21447 38 1
21448 21 10
21448 22 6
21449 12 1
21449 14 2
21449 21 3
21449 22 1
21449 34 1
21450 18 1
21451 20 1
21452 34 1
21453 11 1
21454 2 1
21455 2 2
21455 24 2
21455 26 2
21455 34 1
21456 24 1
21457 5 19
21457 38 14
21458 3 1
21458 12 1
21459 3 2
21460 2 1
21461 15 2
21461 16 1
21462 4 1
21462 5 1
21462 19 1
21462 38 1
21463 38 1
21464 1 1
21464 18 23
21464 19 13
21464 20 2
21465 31 1
21466 20 1
21467 24 3
21467 26 1
21467 34 1
21468 3 3
21468 4 1
21468 14 1
21468 19 2
21468 22 1
21468 29 3
21468 31 1
21468 34 2
21468 38 1
21469 18 1
21470 5 1
21471 7 5
21471 8 6
21472 34 1
21473 12 1
21474 29 4
21474 31 16
21475 4 1
21475 5 1
21476 28 1
21477 34 1
21479 38 1
21480 12 30
21480 14 23
21480 38 1
21481 5 2
21481 7 9
21481 8 10
21482 15 1
21482 24 1
21483 12 1
21484 31 20
21485 29 2
21486 22 1
21487 7 2
21487 8 1
21487 9 1
21487 10 3
21487 11 2
21487 18 8
21487 19 14
21487 20 2
21487 38 1
21488 24 1
21489 12 1
21489 18 1
21490 2 18
21490 3 20
21490 34 27
21491 2 1
21492 3 1
21492 4 1
21492 5 1
21492 15 1
21492 19 2
21492 24 1
21492 29 1
21492 31 1
21492 34 4
21492 38 1
21493 18 1
21493 19 2
21494 5 1
21495 5 1
21496 34 1
21497 34 1
21498 29 1
21499 29 1
21500 2 1
21500 3 1
21500 5 2
21500 8 1
21500 18 1
21500 21 1
21500 22 2
21500 24 1
21500 29 1
21500 30 1
21500 34 2
21500 38 3
21501 18 6
21501 19 10
21501 20 3
21501 34 1
21502 28 1
21503 9 5
21503 10 10
21503 11 5
21503 18 2
21503 19 2
21503 20 3
21503 38 2
21504 8 1
21505 34 1
21506 38 1
21507 5 1
21507 19 1
21507 21 2
21507 22 4
21507 34 1
21508 8 1
21509 34 1
21509 38 1
21510 21 3
21510 26 7
21510 34 1
21511 4 2
21511 5 10
21511 38 7
21512 19 1
21513 3 1
21513 5 1
21513 8 1
21513 11 1
21513 12 1
21513 15 1
21513 18 2
21513 19 1
21513 31 1
21513 34 5
21514 29 21
21514 30 1
21515 24 13
21516 18 1
21516 19 1
21516 34 1
21517 4 4
21517 5 25
21517 38 25
21518 4 8
21518 5 12
21518 24 1
21518 38 25
21519 16 5
21519 17 3
21520 11 1
21521 14 1
21521 19 1
21521 29 1
21522 29 1
21523 18 1
21524 12 3
21524 14 5
21525 24 1
21525 29 1
21525 31 2
21525 38 1
21526 17 1
21527 9 6
21527 10 3
21527 11 8
21528 24 8
21529 21 1
21530 18 2
21530 19 1
21530 20 1
21531 34 1
21532 18 1
21533 2 1
21534 31 1
21535 24 7
21536 34 1
21537 31 1
21538 19 1
21538 38 2
21539 8 1
21540 22 1
21541 2 1
21541 4 5
21541 5 31
21541 38 26
21542 4 1
21542 12 6
21542 14 1
21543 2 2
21543 3 6
21543 24 1
21543 34 7
21544 12 1
21545 19 1
21546 34 1
21547 5 1
21548 5 1
21548 8 1
21548 24 1
21548 34 1
21548 38 1
21549 18 1
21550 31 1
21551 2 4
21551 3 2
21551 34 4
21552 18 1
21553 2 8
21553 3 7
21553 34 8
21553 38 1
21555 12 1
21555 29 16
21555 30 1
21556 38 1
21557 19 1
21558 14 1
21559 3 1
21559 12 4
21559 14 6
21560 11 1
21561 2 1
21561 3 1
21561 28 1
21561 29 33
21561 30 5
21562 12 2
21563 4 1
21564 24 1
21565 3 1
21565 24 1
21566 4 1
21567 28 2
21567 29 1
21568 3 1
21568 12 1
21568 29 1
21569 31 2
21570 19 1
21571 34 1
21572 22 1
21573 14 1
21574 8 1
21575 2 11
21575 3 18
21575 34 17
21576 1 1
21576 2 15
21576 3 20
21576 34 26
21577 5 1
21578 24 8
21579 15 7
21579 16 4
21579 17 4
21580 3 1
21581 3 1
21582 2 1
21582 34 2
21583 24 1
21584 3 1
21584 22 2
21585 4 1
21585 26 4
21586 3 1
21587 2 1
21588 24 1
21589 26 1
21589 29 13
21589 30 1
21590 29 13
21591 5 1
21591 18 1
21592 12 1
21593 5 1
21593 18 1
21593 24 8
21594 18 1
21594 28 1
21594 38 1
21595 21 1
21595 24 1
21596 28 1
21597 5 1
21598 29 1
21598 38 1
21599 13 1
21599 22 1
21600 2 1
21601 5 1
21601 11 1
21602 16 1
21602 17 3
21603 7 1
21603 8 1
21603 29 9
21603 30 1
21604 29 1
21605 24 2
21606 29 2
21607 4 1
21607 5 4
21607 31 1
21607 38 7
21608 3 1
21608 24 2
21608 38 1
21609 24 7
21610 4 1
21610 5 4
21610 7 2
21610 8 5
21610 18 5
21610 19 1
21610 20 3
21610 38 7
21611 16 1
21612 5 2
21612 38 1
21613 19 1
21614 24 1
21615 7 1
21615 15 1
21615 20 1
21616 4 1
21617 29 9
21618 34 1
21619 1 1
21619 2 6
21619 3 20
21619 34 30
21620 19 1
21621 2 1
21622 18 4
21622 19 5
21622 20 2
21622 24 6
21623 18 16
21623 19 20
21623 20 2
21623 21 1
21623 24 1
21623 31 1
21624 19 1
21624 26 2
21625 2 1
21626 2 3
21626 3 5
21626 26 1
21626 34 2
21627 2 7
21627 3 12
21627 34 15
21628 29 11
21628 34 1
21629 3 1
21629 12 1
21629 14 1
21629 24 1
21630 34 1
21631 18 1
21632 18 1
21632 21 1
21632 29 8
21633 24 1
21634 12 2
21635 24 1
21636 4 9
21636 5 29
21636 38 35
21637 10 3
21637 11 1
21637 29 1
21637 34 1
21638 15 5
21638 16 1
21638 17 2
21639 3 2
21639 11 1
21639 12 1
21639 24 1
21639 34 2
21640 24 23
21640 29 1
21641 31 5
21642 4 1
21642 5 1
21643 2 8
21643 3 16
21643 34 22
21644 28 2
21645 34 1
21646 7 1
21647 2 1
21647 18 1
21647 31 1
21648 24 2
21648 25 1
21648 26 2
21649 24 1
21650 38 1
21651 5 1
21652 22 1
21653 2 16
21653 3 30
21653 12 1
21653 34 44
21654 3 3
21654 4 1
21654 5 1
21654 12 3
21654 18 3
21654 19 2
21654 20 1
21654 21 1
21654 22 1
21654 29 3
21654 31 2
21654 34 3
21655 15 1
21655 16 2
21655 20 1
21656 2 2
21657 9 1
21657 10 3
21657 11 3
21658 20 1
21659 12 1
21659 15 1
21660 34 1
21661 12 1
21662 20 1
21663 34 1
21664 21 11
21664 22 6
21665 5 1
21666 18 1
21666 26 2
21667 8 1
21668 31 2
21669 2 1
21669 3 2
21669 5 1
21669 10 2
21669 19 1
21669 24 3
21669 26 1
21669 29 1
21670 20 1
21670 31 17
21671 3 2
21671 4 1
21671 5 1
21671 7 1
21671 15 1
21671 18 1
21671 20 2
21671 24 1
21671 38 3
21672 9 1
21672 10 1
21672 11 3
21673 21 1
21674 5 1
21674 24 1
21675 24 1
21676 5 1
21676 24 3
21677 24 1
21678 8 1
21679 38 1
21680 5 17
21680 19 1
21680 29 1
21680 38 11
21681 3 1
21682 18 1
21683 18 1
21683 29 1
21684 22 1
21684 24 1
21685 29 1
21686 15 1
21686 29 1
21687 21 5
21687 22 5
21687 34 1
21688 5 1
21688 12 1
21689 2 32
21689 3 52
21689 29 13
21689 30 1
21689 34 69
21690 12 2
21691 12 1
21692 11 1
21693 18 1
21694 12 1
21695 18 1
21696 29 26
21696 30 2
21697 24 1
21698 21 9
21698 22 11
21699 11 1
21699 31 4
21700 4 1
21700 34 1
21701 29 14
21701 30 2
21702 21 35
21702 22 42
21703 26 2
21703 29 1
21704 3 1
21704 5 1
21704 21 1
21705 5 4
21705 38 2
21706 29 1
21706 31 15
21707 19 2
21707 21 1
21708 12 1
21709 4 1
21710 34 1
21711 3 1
21711 38 1
21712 29 16
21712 30 2
21713 12 47
21713 13 3
21713 14 21
21713 20 1
21714 5 1
21714 7 8
21714 8 16
21714 15 2
21714 16 2
21714 18 1
21715 29 4
21716 3 1
21717 5 1
21717 28 1
21717 38 1
21718 3 1
21718 38 1
21719 34 1
21720 5 1
21720 21 7
21720 22 5
21720 28 1
21721 5 1
21721 10 1
21721 11 1
21721 31 1
21721 34 2
21721 38 1
21722 12 1
21722 19 1
21723 8 1
21724 18 16
21724 19 10
21724 20 4
21725 38 1
21726 15 2
21726 21 1
21726 34 1
21727 2 2
21727 38 1
21728 29 1
21729 3 4
21729 34 6
21730 5 1
21731 3 1
21732 29 1
21733 7 1
21733 8 2
21734 20 1
21735 3 1
21735 5 1
21736 28 2
21737 3 1
21738 15 1
21739 29 8
21739 30 1
21740 21 1
21741 26 3
21742 5 1
21743 29 1
21744 7 7
21744 8 7
21744 15 1
21744 17 1
21744 20 1
21745 26 1
21746 34 1
21747 2 1
21747 10 1
21747 19 1
21747 24 1
21747 34 1
21747 38 2
21749 8 1
21750 34 1
21751 21 1
21752 34 1
21753 5 1
21754 11 1
21754 28 3
21755 26 3
21756 5 8
21756 8 1
21756 38 9
21757 9 1
21757 11 1
21757 34 1
21758 2 1
21758 8 1
21759 2 1
21759 5 1
21759 14 1
21759 16 1
21759 18 2
21759 24 2
21759 29 1
21759 34 3
21759 38 2
21760 29 1
21761 18 1
21762 24 1
21762 29 1
21763 8 1
21764 3 1
21765 5 1
21765 14 1
21765 22 1
21766 12 18
21766 13 1
21766 14 10
21766 30 1
21767 34 1
21768 8 1
21769 3 1
21770 7 1
21771 18 37
21771 19 37
21771 20 5
21772 15 1
21772 16 1
21772 17 1
21773 10 1
21774 12 1
21775 15 1
21776 12 1
21776 21 1
21776 22 2
21776 38 1
21777 31 1
21778 19 1
21779 2 1
21779 34 1
21780 28 1
21781 5 1
21782 3 1
21782 28 1
21783 28 5
21784 4 1
21784 24 4
21784 29 7
21784 30 1
21785 2 3
21785 3 3
21785 17 1
21785 34 8
21786 29 10
21787 29 1
21788 38 1
21789 24 1
21789 25 1
21789 26 15
21790 18 1
21790 22 1
21791 24 1
21792 15 1
21793 31 1
21794 3 1
21794 19 1
21795 24 1
21796 34 1
21797 24 1
21798 19 1
21798 31 1
21799 3 1
21799 5 1
21799 11 1
21799 21 1
21799 24 2
21799 29 2
21800 24 1
21801 28 1
21801 31 3
21802 5 1
21802 18 18
21802 19 28
21802 20 10
21802 21 1
21803 10 1
21803 18 2
21803 21 1
21804 21 1
21805 3 1
21805 38 1
21806 19 1
21807 8 1
21807 34 1
21808 3 1
21809 29 1
21810 18 2
21811 21 3
21811 22 6
21812 24 1
21812 38 1
21813 10 1
21814 38 1
21815 2 1
21815 3 1
21815 18 2
21815 21 1
21815 34 4
21815 38 1
21816 18 1
21817 34 1
21818 29 1
21819 21 15
21819 22 6
21820 2 1
21820 16 1
21821 3 1
21821 18 1
21822 19 1
21822 23 1
21822 24 16
21822 29 1
21822 34 1
21823 21 4
21823 22 3
21824 3 1
21824 7 1
21824 12 20
21824 14 7
21825 21 1
21826 19 1
21827 2 1
